Li3InCl6                                
   1.00000000000000     
    13.4590179104963532    0.0000000000000000   -0.2730850081025033
     0.0000000000000000   11.4560718765941516    0.0000000000000000
    -4.7917770538581186    0.0000000000000000   12.1676401793538442
   Cl   In   Li
    47     8    23
Direct
  0.8585558666971771  0.1643664922886250  0.8284118818635063
  0.8902430864179911  0.8169367278627092  0.8640116727185629
  0.1225317082124025  0.8215329638367539  0.1507722595992168
  0.3696784183812949  0.6433459544495523  0.1466381600533739
  0.1274202699644119  0.6627984747781858  0.8918927652198615
  0.1318575986663215  0.3548144517177139  0.8679226854782741
  0.3565960127342002  0.3372871495483084  0.1486304586175602
  0.1039204880614722  0.1525783075779429  0.6392389453597628
  0.8667505101297905  0.1515780265090256  0.3687325290662246
  0.8823464423602062  0.8434609332465078  0.3529332938814752
  0.1205774324272555  0.8435903458979065  0.6348855464196003
  0.3749600654970881  0.6508564202186850  0.6354662793981307
  0.1375871523390184  0.6424247481402214  0.3766689268138619
  0.1366459335237318  0.3428789098682088  0.3640654840324861
  0.3491666793911385  0.3295165644686404  0.6370724786996508
  0.6051802211536971  0.1548741991813351  0.1277446501739447
  0.3712453949720376  0.1454148978874469  0.8589379992360877
  0.3853143260544800  0.8393846855102661  0.8624399014952930
  0.6235191635702158  0.8525287276393623  0.1356333344843903
  0.8938732173225280  0.6600501592188572  0.1244894103397495
  0.6555350132652615  0.6668939152500801  0.8670522805789412
  0.6477878861547465  0.3404458708546081  0.8635065930518231
  0.8689018904257289  0.3602631972607209  0.1420828026641304
  0.5849668958421126  0.1675975097327865  0.6205414063964032
  0.3537776795132581  0.1281184670284682  0.3387236586279450
  0.3930053455547384  0.8285648115041788  0.3608662961609501
  0.6269529986734943  0.8594611334917904  0.6427984395565576
  0.8813423506100947  0.6480051392657936  0.6362284770449174
  0.6321540841538571  0.6619775242147805  0.3677869280684590
  0.6320499791248986  0.3592317157351448  0.3525170890680444
  0.8718977924775830  0.3430783004464230  0.6170042840738260
  0.1060861667298250  0.0138967330954812  0.3822793963850448
  0.8790216456015634  0.9780537747861153  0.6108487605388588
  0.3731078910827699  0.4936639956568800  0.3923282101826147
  0.1392466906792076  0.5111559406361945  0.6308069306767100
  0.1180225296156266  0.9908791758589833  0.8786549673455953
  0.8813477793288250  0.0227264625920010  0.1219462149369509
  0.3640459255263972  0.5084521658502928  0.8894327867652865
  0.1293746722750910  0.5116608742317793  0.1194349166696636
  0.6070842378336094  0.0117851481059127  0.3840830117867813
  0.3756132725611743  0.9819477116084331  0.6044227685241087
  0.8658851666345597  0.5174608803733430  0.3756747123864573
  0.6485330820243875  0.4991394658465255  0.6200858727556828
  0.6056683957988728  0.0040672805753166  0.8703730218913238
  0.3852847581078199 -0.0151222014593095  0.1146530011280905
  0.8858153164810323  0.5060519131522631  0.8929967829482723
  0.6449607350972668  0.5278342720644543  0.1161667269607815
  0.2584236870506779  0.4928315452782138  0.0073622337068493
 -0.0046540082144642 -0.0016508711371553  0.5010590268361665
  0.2569156229198963  0.4951080510652011  0.5127528487803035
  0.4984728267203243 -0.0018698983206174 -0.0072475365456613
  0.7414759627334472  0.4980255202676221  0.9880327660202641
  0.4935921893321710  0.9946267412870761  0.4973719760703534
  0.7547587457570811  0.5026991494997011  0.5002961968032601
  0.0045415882121503  0.6790120391637421  0.0030755663621115
  0.9721289809636739  0.1535459883275365  0.2587908722994775
  0.0085496420525500  0.8571130136700803  0.7515648442455505
  0.2580108993809778  0.6564354309704796  0.2734175165480016
  0.2525911066401045  0.3557573320402695  0.7578702197271098
 -0.0102715561933032  0.1178638583049680  0.7609444093415009
  0.9879779431482556  0.8842465177425015  0.2394931173400199
  0.2699298897800168  0.6648118444217451  0.7421188486482573
  0.2838416224892991  0.3237426735636466  0.2997274153853657
  0.4920194188520153  0.1423191542655421  0.2375697160656771
  0.4984308442930908  0.8398097357569732  0.7453446841133059
  0.7480188250352408  0.6765306830238719  0.2648736036875826
  0.7464527920619486  0.3163781077534323  0.7317875429039814
  0.4683434783948218  0.1461094553093378  0.7294483750621517
  0.5206678519900306  0.8507937495012931  0.2581058905381731
  0.7527935162451789  0.6609189104001252  0.7415108803048207
  0.7479649113608843  0.3744410787337870  0.2446737613842885
  0.2761361709549843 -0.0419291010015626  0.2210083323265122
  0.4931595482437393  0.5056123091060851  0.2764170036513338
  0.2190639478173128  0.0015722648384912  0.7718351200064142
  0.7680899415631385  0.0082063026487997  0.2183452153679670
  0.0000589534108023  0.4947038823569058  0.2759384947058088
  0.7229189265745993  0.0334267572854519  0.7583060052980020
  0.0045714007964951  0.4828190477538118  0.7176562671086674
 
  0.00000000E+00  0.00000000E+00  0.00000000E+00
  0.00000000E+00  0.00000000E+00  0.00000000E+00
  0.00000000E+00  0.00000000E+00  0.00000000E+00
  0.00000000E+00  0.00000000E+00  0.00000000E+00
  0.00000000E+00  0.00000000E+00  0.00000000E+00
  0.00000000E+00  0.00000000E+00  0.00000000E+00
  0.00000000E+00  0.00000000E+00  0.00000000E+00
  0.00000000E+00  0.00000000E+00  0.00000000E+00
  0.00000000E+00  0.00000000E+00  0.00000000E+00
  0.00000000E+00  0.00000000E+00  0.00000000E+00
  0.00000000E+00  0.00000000E+00  0.00000000E+00
  0.00000000E+00  0.00000000E+00  0.00000000E+00
  0.00000000E+00  0.00000000E+00  0.00000000E+00
  0.00000000E+00  0.00000000E+00  0.00000000E+00
  0.00000000E+00  0.00000000E+00  0.00000000E+00
  0.00000000E+00  0.00000000E+00  0.00000000E+00
  0.00000000E+00  0.00000000E+00  0.00000000E+00
  0.00000000E+00  0.00000000E+00  0.00000000E+00
  0.00000000E+00  0.00000000E+00  0.00000000E+00
  0.00000000E+00  0.00000000E+00  0.00000000E+00
  0.00000000E+00  0.00000000E+00  0.00000000E+00
  0.00000000E+00  0.00000000E+00  0.00000000E+00
  0.00000000E+00  0.00000000E+00  0.00000000E+00
  0.00000000E+00  0.00000000E+00  0.00000000E+00
  0.00000000E+00  0.00000000E+00  0.00000000E+00
  0.00000000E+00  0.00000000E+00  0.00000000E+00
  0.00000000E+00  0.00000000E+00  0.00000000E+00
  0.00000000E+00  0.00000000E+00  0.00000000E+00
  0.00000000E+00  0.00000000E+00  0.00000000E+00
  0.00000000E+00  0.00000000E+00  0.00000000E+00
  0.00000000E+00  0.00000000E+00  0.00000000E+00
  0.00000000E+00  0.00000000E+00  0.00000000E+00
  0.00000000E+00  0.00000000E+00  0.00000000E+00
  0.00000000E+00  0.00000000E+00  0.00000000E+00
  0.00000000E+00  0.00000000E+00  0.00000000E+00
  0.00000000E+00  0.00000000E+00  0.00000000E+00
  0.00000000E+00  0.00000000E+00  0.00000000E+00
  0.00000000E+00  0.00000000E+00  0.00000000E+00
  0.00000000E+00  0.00000000E+00  0.00000000E+00
  0.00000000E+00  0.00000000E+00  0.00000000E+00
  0.00000000E+00  0.00000000E+00  0.00000000E+00
  0.00000000E+00  0.00000000E+00  0.00000000E+00
  0.00000000E+00  0.00000000E+00  0.00000000E+00
  0.00000000E+00  0.00000000E+00  0.00000000E+00
  0.00000000E+00  0.00000000E+00  0.00000000E+00
  0.00000000E+00  0.00000000E+00  0.00000000E+00
  0.00000000E+00  0.00000000E+00  0.00000000E+00
  0.00000000E+00  0.00000000E+00  0.00000000E+00
  0.00000000E+00  0.00000000E+00  0.00000000E+00
  0.00000000E+00  0.00000000E+00  0.00000000E+00
  0.00000000E+00  0.00000000E+00  0.00000000E+00
  0.00000000E+00  0.00000000E+00  0.00000000E+00
  0.00000000E+00  0.00000000E+00  0.00000000E+00
  0.00000000E+00  0.00000000E+00  0.00000000E+00
  0.00000000E+00  0.00000000E+00  0.00000000E+00
  0.00000000E+00  0.00000000E+00  0.00000000E+00
  0.00000000E+00  0.00000000E+00  0.00000000E+00
  0.00000000E+00  0.00000000E+00  0.00000000E+00
  0.00000000E+00  0.00000000E+00  0.00000000E+00
  0.00000000E+00  0.00000000E+00  0.00000000E+00
  0.00000000E+00  0.00000000E+00  0.00000000E+00
  0.00000000E+00  0.00000000E+00  0.00000000E+00
  0.00000000E+00  0.00000000E+00  0.00000000E+00
  0.00000000E+00  0.00000000E+00  0.00000000E+00
  0.00000000E+00  0.00000000E+00  0.00000000E+00
  0.00000000E+00  0.00000000E+00  0.00000000E+00
  0.00000000E+00  0.00000000E+00  0.00000000E+00
  0.00000000E+00  0.00000000E+00  0.00000000E+00
  0.00000000E+00  0.00000000E+00  0.00000000E+00
  0.00000000E+00  0.00000000E+00  0.00000000E+00
  0.00000000E+00  0.00000000E+00  0.00000000E+00
  0.00000000E+00  0.00000000E+00  0.00000000E+00
  0.00000000E+00  0.00000000E+00  0.00000000E+00
  0.00000000E+00  0.00000000E+00  0.00000000E+00
  0.00000000E+00  0.00000000E+00  0.00000000E+00
  0.00000000E+00  0.00000000E+00  0.00000000E+00
  0.00000000E+00  0.00000000E+00  0.00000000E+00
  0.00000000E+00  0.00000000E+00  0.00000000E+00
