Li3ErCl6                                
   1.00000000000000     
    11.2350813304671959    0.0000054648476179    0.0000502246817514
    -5.6175359325367387    9.7298685781292704   -0.0000502246817507
     0.0000506793673368   -0.0000292597463735   12.2173329189681521
   Cl   Er   Li
    36     6    18
Direct
  0.1273861179741306  0.8881537641288235  0.3965022467843944
  0.1199684266918294  0.2424321737047751  0.3965037800756895
  0.7898005428191072  0.8861569484197362  0.3666566466192699
  0.8614042806373443  0.0758211140722441  0.6162913954937864
  0.2180528988844113  0.1180365151635207  0.6215453293292246
  0.8743049589761612  0.7673199186699722  0.6005748002913097
  0.1305577588526162  0.8904366174774065  0.8999852978627431
  0.1168304124184300  0.2212042929478034  0.8872747026326023
  0.7748903258491152  0.8749450150509355  0.8894831818327874
  0.8770537905972976  0.1067528045061822  0.1105054047691554
  0.2282279320421111  0.1167851319437856  0.1197727302982694
  0.8910930658249266  0.7595834884073085  0.1110773209521811
  0.2205638115219377  0.7733109287238952  0.1588138404893177
  0.2426236407604825  0.4436934381552231  0.1442513944107306
  0.5532972883107811  0.7777892431733793  0.1472803472217712
  0.7740630918489210  0.1974456212790755  0.8317753596828759
  0.4529581036330378  0.2191583077686085  0.8651309035138458
  0.8045448819015336  0.5748318093990176  0.8280185492522535
  0.2297856215432421  0.7803796297032858  0.6698576176783683
  0.2183820345363323  0.4496347318575358  0.6659983905686526
  0.9666979886278184  0.4501254426880233  0.2339155054593549
  0.7521743748422596  0.1931861142382486  0.3713764348576123
  0.4588136241123226  0.2349446457806682  0.3547174613709638
  0.7873075471876927  0.5554876118973107  0.3580228834181953
  0.4442233586251580  0.5429255832894221  0.3924158583657902
  0.4728063625126729  0.8835857863226292  0.3966169350693724
  0.1637025370733458  0.5986146072081521  0.4354439760816259
  0.5637632527606136  0.4632773380366393  0.6251005891246469
  0.8848793600511617  0.4175363604938200  0.6074769791572198
  0.5241653344749936  0.1080064617340520  0.6163353560174627
  0.4719740615033866  0.5750299344498316  0.8749316737226951
  0.4452918678324940  0.8874558927400142  0.8931125569962972
  0.0924655683727824  0.5319788646309610  0.9215760652514318
  0.5400999950401912  0.4393356372351027  0.1276549068697309
  0.7848126229368587  0.3914760425727600  0.0323376051745521
  0.5547091194453033  0.0870851805046531  0.1343143772833960
  0.0036480729090203  0.9984974131037865  0.0021559846710096
  0.0028556277436296  0.0030965255284970  0.4936541946316009
  0.3339045064925478  0.6593413589463962  0.2721771690385885
  0.6697527593243382  0.3329306363699240  0.7367507164293551
  0.2997230687154617  0.6489165083385684  0.8043649188189047
  0.6857474329478079  0.3369204844388867  0.2281449682200804
  0.3520161027116555  0.3251000452156685  0.9827963654511110
  0.6728619330451338  0.0270745714687713  0.9787278305635428
  0.9510773754332555  0.6311456415353055  0.9817219619169264
  0.6475059048781224  0.6668583550865004  0.0419796652845206
  0.3307601632662050  0.9776556565614845  0.0423717061265005
  0.9932220683277374  0.3549716686065762  0.0714502807539343
  0.3299774164422005  0.3577102671929264  0.5447302440651864
  0.6640258575160967  0.0413494630476724  0.5183288293946979
  0.0216906826962781  0.6599742358715097  0.5577635099797932
  0.6825357921760082  0.6543208755058656  0.4532717343045470
  0.3703177150932652  0.0235846948521012  0.4453702133601267
  0.9857497472172770  0.3658059563054066  0.4121512628140817
  0.3114595520165378  0.0123949680862479  0.7511300611205634
  0.9883321658917775  0.2725455651818846  0.7376114873313950
  0.6939259293559229  0.6768572949153703  0.7519822047840287
  0.6722793127336428  0.9878052131079067  0.2553608097793117
  0.0085867527990431  0.6921240297111779  0.2666509544407185
  0.3405767875727466  0.3308744589292862  0.2568311209407048
 
  0.00000000E+00  0.00000000E+00  0.00000000E+00
  0.00000000E+00  0.00000000E+00  0.00000000E+00
  0.00000000E+00  0.00000000E+00  0.00000000E+00
  0.00000000E+00  0.00000000E+00  0.00000000E+00
  0.00000000E+00  0.00000000E+00  0.00000000E+00
  0.00000000E+00  0.00000000E+00  0.00000000E+00
  0.00000000E+00  0.00000000E+00  0.00000000E+00
  0.00000000E+00  0.00000000E+00  0.00000000E+00
  0.00000000E+00  0.00000000E+00  0.00000000E+00
  0.00000000E+00  0.00000000E+00  0.00000000E+00
  0.00000000E+00  0.00000000E+00  0.00000000E+00
  0.00000000E+00  0.00000000E+00  0.00000000E+00
  0.00000000E+00  0.00000000E+00  0.00000000E+00
  0.00000000E+00  0.00000000E+00  0.00000000E+00
  0.00000000E+00  0.00000000E+00  0.00000000E+00
  0.00000000E+00  0.00000000E+00  0.00000000E+00
  0.00000000E+00  0.00000000E+00  0.00000000E+00
  0.00000000E+00  0.00000000E+00  0.00000000E+00
  0.00000000E+00  0.00000000E+00  0.00000000E+00
  0.00000000E+00  0.00000000E+00  0.00000000E+00
  0.00000000E+00  0.00000000E+00  0.00000000E+00
  0.00000000E+00  0.00000000E+00  0.00000000E+00
  0.00000000E+00  0.00000000E+00  0.00000000E+00
  0.00000000E+00  0.00000000E+00  0.00000000E+00
  0.00000000E+00  0.00000000E+00  0.00000000E+00
  0.00000000E+00  0.00000000E+00  0.00000000E+00
  0.00000000E+00  0.00000000E+00  0.00000000E+00
  0.00000000E+00  0.00000000E+00  0.00000000E+00
  0.00000000E+00  0.00000000E+00  0.00000000E+00
  0.00000000E+00  0.00000000E+00  0.00000000E+00
  0.00000000E+00  0.00000000E+00  0.00000000E+00
  0.00000000E+00  0.00000000E+00  0.00000000E+00
  0.00000000E+00  0.00000000E+00  0.00000000E+00
  0.00000000E+00  0.00000000E+00  0.00000000E+00
  0.00000000E+00  0.00000000E+00  0.00000000E+00
  0.00000000E+00  0.00000000E+00  0.00000000E+00
  0.00000000E+00  0.00000000E+00  0.00000000E+00
  0.00000000E+00  0.00000000E+00  0.00000000E+00
  0.00000000E+00  0.00000000E+00  0.00000000E+00
  0.00000000E+00  0.00000000E+00  0.00000000E+00
  0.00000000E+00  0.00000000E+00  0.00000000E+00
  0.00000000E+00  0.00000000E+00  0.00000000E+00
  0.00000000E+00  0.00000000E+00  0.00000000E+00
  0.00000000E+00  0.00000000E+00  0.00000000E+00
  0.00000000E+00  0.00000000E+00  0.00000000E+00
  0.00000000E+00  0.00000000E+00  0.00000000E+00
  0.00000000E+00  0.00000000E+00  0.00000000E+00
  0.00000000E+00  0.00000000E+00  0.00000000E+00
  0.00000000E+00  0.00000000E+00  0.00000000E+00
  0.00000000E+00  0.00000000E+00  0.00000000E+00
  0.00000000E+00  0.00000000E+00  0.00000000E+00
  0.00000000E+00  0.00000000E+00  0.00000000E+00
  0.00000000E+00  0.00000000E+00  0.00000000E+00
  0.00000000E+00  0.00000000E+00  0.00000000E+00
  0.00000000E+00  0.00000000E+00  0.00000000E+00
  0.00000000E+00  0.00000000E+00  0.00000000E+00
  0.00000000E+00  0.00000000E+00  0.00000000E+00
  0.00000000E+00  0.00000000E+00  0.00000000E+00
  0.00000000E+00  0.00000000E+00  0.00000000E+00
  0.00000000E+00  0.00000000E+00  0.00000000E+00
