 vasp.6.4.1 05Apr23 (build Apr 01 2024 11:18:00) complex                        
  
 executed on             LinuxIFC date 2024.05.04  09:24:11
 running   48 mpi-ranks, on    1 nodes
 distrk:  each k-point on   48 cores,    1 groups
 distr:  one band on NCORE=   1 cores,   48 groups


--------------------------------------------------------------------------------------------------------


 INCAR:
   SYSTEM = \"Li3ErCl6\"
   ENCUT = 520
   EDIFF = 1E-5
   LORBIT = 11
   LREAL = .FALSE.
   EDIFFG = -0.01
   NELMIN = 6
   NELM = 200
   IALGO = 38
   NSW = 100
   ISIF = 2
   IBRION = 2
   ISYM = 2
   PREC = A
   ISTART = 0
   ICHARG = 2
   ISMEAR = 0
   SIGMA = 0.1
   AMIX = 0.2
   BMIX = 0.00001
   AMIX_MAG = 0.8
   BMIX_MAG = 0.00001
   LWAVE = .FALSE.
   LCHARG = .FALSE.

 POTCAR:    PAW_PBE Cl 06Sep2000                  
 POTCAR:    PAW_PBE Er_3 06Sep2000                
 POTCAR:    PAW_PBE Li 17Jan2003                  
 -----------------------------------------------------------------------------
|                                                                             |
|           W    W    AA    RRRRR   N    N  II  N    N   GGGG   !!!           |
|           W    W   A  A   R    R  NN   N  II  NN   N  G    G  !!!           |
|           W    W  A    A  R    R  N N  N  II  N N  N  G       !!!           |
|           W WW W  AAAAAA  RRRRR   N  N N  II  N  N N  G  GGG   !            |
|           WW  WW  A    A  R   R   N   NN  II  N   NN  G    G                |
|           W    W  A    A  R    R  N    N  II  N    N   GGGG   !!!           |
|                                                                             |
|     For optimal performance we recommend to set                             |
|       NCORE = 2 up to number-of-cores-per-socket                            |
|     NCORE specifies how many cores store one orbital (NPAR=cpu/NCORE).      |
|     This setting can greatly improve the performance of VASP for DFT.       |
|     The default, NCORE=1 might be grossly inefficient on modern             |
|     multi-core architectures or massively parallel machines. Do your        |
|     own testing! More info at https://www.vasp.at/wiki/index.php/NCORE      |
|     Unfortunately you need to use the default for GW and RPA                |
|     calculations (for HF NCORE is supported but not extensively tested      |
|     yet).                                                                   |
|                                                                             |
 -----------------------------------------------------------------------------

 POTCAR:    PAW_PBE Cl 06Sep2000                  
   SHA256 =  9f1b6e6ed4247ac726a768b330d26d7667cc3c95a39ff49c1d064c2d9dcce931 Cl/POTCAR             
   COPYR  = (c) Copyright 06Sep2000 Georg Kresse                                                    
   COPYR  = This file is part of the software VASP. Any use, copying, and all other rights are regul
   COPYR  = If you do not have a valid VASP license, you may not use, copy or distribute this file. 
   VRHFIN =Cl: s2p5                                                                                 
   LEXCH  = PE                                                                                      
   EATOM  =   409.7259 eV,   30.1140 Ry                                                             
                                                                                                    
   TITEL  = PAW_PBE Cl 06Sep2000                                                                    
   LULTRA =        F    use ultrasoft PP ?                                                          
   IUNSCR =        1    unscreen: 0-lin 1-nonlin 2-no                                               
   RPACOR =    1.500    partial core radius                                                         
   POMASS =   35.453; ZVAL   =    7.000    mass and valenz                                          
   RCORE  =    1.900    outmost cutoff radius                                                       
   RWIGS  =    2.100; RWIGS  =    1.111    wigner-seitz radius (au A)                               
   ENMAX  =  262.472; ENMIN  =  196.854 eV                                                          
   ICORE  =        2    local potential                                                             
   LCOR   =        T    correct aug charges                                                         
   LPAW   =        T    paw PP                                                                      
   EAUG   =  356.192                                                                                
   DEXC   =    0.000                                                                                
   RMAX   =    1.945    core radius for proj-oper                                                   
   RAUG   =    1.300    factor for augmentation sphere                                              
   RDEP   =    2.020    radius for radial grids                                                     
   RDEPT  =    1.678    core radius for aug-charge                                                  
                                                                                                    
   Atomic configuration                                                                             
    6 entries                                                                                       
     n  l   j            E        occ.                                                              
     1  0  0.50     -2751.1850   2.0000                                                             
     2  0  0.50      -252.6861   2.0000                                                             
     2  1  1.50      -191.6157   6.0000                                                             
     3  0  0.50       -20.6916   2.0000                                                             
     3  1  0.50        -8.5949   5.0000                                                             
     3  2  1.50        -8.1635   0.0000                                                             
   Description                                                                                      
     l       E           TYP  RCUT    TYP  RCUT                                                     
     0    -20.6915656     23  1.900                                                                 
     0    -22.0521482     23  1.900                                                                 
     1     -8.5948577     23  1.900                                                                 
     1     -5.3847331     23  1.900                                                                 
     2     -8.1634956     23  1.900                                                                 
  local pseudopotential read in
  partial core-charges read in
  partial kinetic energy density read in
  atomic valenz-charges read in
  non local Contribution for L=           0  read in
    real space projection operators read in
  non local Contribution for L=           0  read in
    real space projection operators read in
  non local Contribution for L=           1  read in
    real space projection operators read in
  non local Contribution for L=           1  read in
    real space projection operators read in
    PAW grid and wavefunctions read in
 
   number of l-projection  operators is LMAX  =           4
   number of lm-projection operators is LMMAX =           8
 
 POTCAR:    PAW_PBE Er_3 06Sep2000                
   SHA256 =  13ccedc37aac4ee531880ba6a6cef52f3f4eebb465d5e17e8d6864742c4f7e0d Er_3/POTCAR           
   COPYR  = (c) Copyright 06Sep2000 Georg Kresse                                                    
   COPYR  = This file is part of the software VASP. Any use, copying, and all other rights are regul
   COPYR  = If you do not have a valid VASP license, you may not use, copy or distribute this file. 
   VRHFIN =Er : [core=Xe4]                                                                          
   LEXCH  = PE                                                                                      
   EATOM  =   672.9347 eV,   49.4593 Ry                                                             
                                                                                                    
   TITEL  = PAW_PBE Er_3 06Sep2000                                                                  
   LULTRA =        F    use ultrasoft PP ?                                                          
   IUNSCR =        1    unscreen: 0-lin 1-nonlin 2-no                                               
   RPACOR =    2.300    partial core radius                                                         
   POMASS =  167.260; ZVAL   =    9.000    mass and valenz                                          
   RCORE  =    3.000    outmost cutoff radius                                                       
   RWIGS  =    3.000; RWIGS  =    1.588    wigner-seitz radius (au A)                               
   ENMAX  =  155.037; ENMIN  =  116.278 eV                                                          
   RCLOC  =    2.308    cutoff for local pot                                                        
   LCOR   =        T    correct aug charges                                                         
   LPAW   =        T    paw PP                                                                      
   EAUG   =  307.908                                                                                
   DEXC   =    0.000                                                                                
   RMAX   =    3.060    core radius for proj-oper                                                   
   RAUG   =    1.300    factor for augmentation sphere                                              
   RDEP   =    3.178    radius for radial grids                                                     
   RDEPT  =    2.456    core radius for aug-charge                                                  
                                                                                                    
   Atomic configuration                                                                             
   14 entries                                                                                       
     n  l   j            E        occ.                                                              
     1  0  0.50    -57361.5229   2.0000                                                             
     2  0  0.50     -9641.3894   2.0000                                                             
     2  1  1.50     -8526.3789   6.0000                                                             
     3  0  0.50     -2166.6055   2.0000                                                             
     3  1  1.50     -1827.6164   6.0000                                                             
     3  2  2.50     -1403.8992  10.0000                                                             
     4  0  0.50      -433.4514   2.0000                                                             
     4  1  1.50      -321.8782   6.0000                                                             
     4  2  2.50      -172.5488  10.0000                                                             
     4  3  2.50        -9.5015  11.0000                                                             
     5  0  0.50       -55.9992   2.0000                                                             
     6  0  0.50        -4.4126   2.0000                                                             
     5  1  1.50       -29.7450   6.0000                                                             
     5  2  2.50        -2.0867   1.0000                                                             
   Description                                                                                      
     l       E           TYP  RCUT    TYP  RCUT                                                     
     0     -4.4125979     23  3.000                                                                 
     0     10.8846608     23  3.000                                                                 
     1    -29.7449686     23  3.000                                                                 
     1    -31.1055512     23  3.000                                                                 
     2     -2.0867431     23  3.000                                                                 
     2      0.6131630     23  3.000                                                                 
  local pseudopotential read in
  partial core-charges read in
  partial kinetic energy density read in
  atomic valenz-charges read in
  non local Contribution for L=           0  read in
    real space projection operators read in
  non local Contribution for L=           0  read in
    real space projection operators read in
  non local Contribution for L=           1  read in
    real space projection operators read in
  non local Contribution for L=           1  read in
    real space projection operators read in
  non local Contribution for L=           2  read in
    real space projection operators read in
  non local Contribution for L=           2  read in
    real space projection operators read in
    PAW grid and wavefunctions read in
 
   number of l-projection  operators is LMAX  =           6
   number of lm-projection operators is LMMAX =          18
 
 POTCAR:    PAW_PBE Li 17Jan2003                  
   SHA256 =  3d9d9bfd1dd25b20a3b919cb3191e6ef627605783dc2e149b9290ff31c32aa6e Li/POTCAR             
   COPYR  = (c) Copyright 17Jan2003 Georg Kresse                                                    
   COPYR  = This file is part of the software VASP. Any use, copying, and all other rights are regul
   COPYR  = If you do not have a valid VASP license, you may not use, copy or distribute this file. 
   VRHFIN =Li: s1p0                                                                                 
   LEXCH  = PE                                                                                      
   EATOM  =     5.3001 eV,    0.3895 Ry                                                             
                                                                                                    
   TITEL  = PAW_PBE Li 17Jan2003                                                                    
   LULTRA =        F    use ultrasoft PP ?                                                          
   IUNSCR =        1    unscreen: 0-lin 1-nonlin 2-no                                               
   RPACOR =    1.500    partial core radius                                                         
   POMASS =    7.010; ZVAL   =    1.000    mass and valenz                                          
   RCORE  =    2.050    outmost cutoff radius                                                       
   RWIGS  =    2.600; RWIGS  =    1.376    wigner-seitz radius (au A)                               
   ENMAX  =  140.000; ENMIN  =  100.000 eV                                                          
   ICORE  =        2    local potential                                                             
   LCOR   =        T    correct aug charges                                                         
   LPAW   =        T    paw PP                                                                      
   EAUG   =  331.638                                                                                
   DEXC   =    0.000                                                                                
   RMAX   =    2.098    core radius for proj-oper                                                   
   RAUG   =    1.300    factor for augmentation sphere                                              
   RDEP   =    2.094    radius for radial grids                                                     
   RDEPT  =    1.810    core radius for aug-charge                                                  
                                                                                                    
   Atomic configuration                                                                             
    4 entries                                                                                       
     n  l   j            E        occ.                                                              
     1  0  0.50       -51.8549   2.0000                                                             
     2  0  0.50        -2.8742   1.0000                                                             
     2  1  0.50        -1.3606   0.0000                                                             
     3  2  1.50        -1.3606   0.0000                                                             
   Description                                                                                      
     l       E           TYP  RCUT    TYP  RCUT                                                     
     0     -2.8742052     23  2.050                                                                 
     0     27.2116520     23  2.050                                                                 
     1     -1.3605826     23  2.050                                                                 
     2     -1.3605826     23  2.050                                                                 
  local pseudopotential read in
  partial core-charges read in
  partial kinetic energy density read in
  atomic valenz-charges read in
  non local Contribution for L=           0  read in
    real space projection operators read in
  non local Contribution for L=           0  read in
    real space projection operators read in
  non local Contribution for L=           1  read in
    real space projection operators read in
    PAW grid and wavefunctions read in
 
   number of l-projection  operators is LMAX  =           3
   number of lm-projection operators is LMMAX =           5
 
 -----------------------------------------------------------------------------
|                                                                             |
|               ----> ADVICE to this user running VASP <----                  |
|                                                                             |
|     You have a (more or less) 'large supercell' and for larger cells it     |
|     might be more efficient to use real-space projection operators.         |
|     Therefore, try LREAL= Auto in the INCAR file.                           |
|     Mind: For very accurate calculation, you might also keep the            |
|     reciprocal projection scheme (i.e. LREAL=.FALSE.).                      |
|                                                                             |
 -----------------------------------------------------------------------------

  PAW_PBE Cl 06Sep2000                  :
 energy of atom  1       EATOM= -409.7259
 kinetic energy error for atom=    0.0023 (will be added to EATOM!!)
  PAW_PBE Er_3 06Sep2000                :
 energy of atom  2       EATOM= -672.9347
 kinetic energy error for atom=    0.0002 (will be added to EATOM!!)
  PAW_PBE Li 17Jan2003                  :
 energy of atom  3       EATOM=   -5.3001
 kinetic energy error for atom=    0.0000 (will be added to EATOM!!)
 
 
 POSCAR: Li3ErCl6
  positions in direct lattice
  velocities in cartesian coordinates
 exchange correlation table for  LEXCH =        8
   RHO(1)=    0.500       N(1)  =     2000
   RHO(2)=  100.500       N(2)  =     4000
 


--------------------------------------------------------------------------------------------------------


 ion  position               nearest neighbor table
   1  0.111  0.881  0.388-  53 2.54  59 2.61  38 2.62  51 2.70
   2  0.119  0.230  0.388-  54 2.54  60 2.61  38 2.62  49 2.70
   3  0.770  0.889  0.388-  52 2.54  58 2.61  38 2.62  50 2.70
   4  0.889  0.119  0.612-  50 2.54  56 2.61  38 2.62  54 2.70
   5  0.230  0.111  0.612-  49 2.54  55 2.61  38 2.62  53 2.70
   6  0.881  0.770  0.612-  51 2.54  57 2.61  38 2.62  52 2.70
   7  0.119  0.889  0.888-  45 2.54  55 2.61  37 2.62  47 2.70
   8  0.111  0.230  0.888-  43 2.54  56 2.61  37 2.62  48 2.70
   9  0.770  0.881  0.888-  44 2.54  57 2.61  37 2.62  46 2.70
  10  0.881  0.111  0.112-  48 2.54  58 2.61  37 2.62  44 2.70
  11  0.230  0.119  0.112-  47 2.54  60 2.61  37 2.62  43 2.70
  12  0.889  0.770  0.112-  46 2.54  59 2.61  37 2.62  45 2.70
  13  0.214  0.770  0.139-  47 2.47  59 2.49  39 2.63
  14  0.230  0.444  0.139-  48 2.47  60 2.49  39 2.63
  15  0.556  0.786  0.139-  46 2.47  58 2.49  39 2.63
  16  0.786  0.230  0.861-  44 2.47  56 2.49  40 2.63
  17  0.444  0.214  0.861-  43 2.47  55 2.49  40 2.63
  18  0.770  0.556  0.861-  45 2.47  57 2.49  40 2.63
  19  0.230  0.786  0.639-  51 2.47  55 2.49  41 2.63
  20  0.214  0.444  0.639-  49 2.47  56 2.49  41 2.63
  21  0.556  0.770  0.639-  50 2.47  57 2.49  41 2.63
  22  0.770  0.214  0.361-  54 2.47  58 2.49  42 2.63
  23  0.444  0.230  0.361-  53 2.47  60 2.49  42 2.63
  24  0.786  0.556  0.361-  52 2.47  59 2.49  42 2.63
  25  0.435  0.544  0.381-  52 2.52  49 2.62  39 2.64  60 2.67
  26  0.456  0.892  0.381-  53 2.52  50 2.62  39 2.64  58 2.67
  27  0.108  0.565  0.381-  54 2.52  51 2.62  39 2.64  59 2.67
  28  0.565  0.456  0.619-  49 2.52  52 2.62  40 2.64  57 2.67
  29  0.892  0.435  0.619-  51 2.52  54 2.62  40 2.64  56 2.67
  30  0.544  0.108  0.619-  50 2.52  53 2.62  40 2.64  55 2.67
  31  0.456  0.565  0.881-  43 2.52  46 2.62  41 2.64  57 2.67
  32  0.435  0.892  0.881-  44 2.52  47 2.62  41 2.64  55 2.67
  33  0.108  0.544  0.881-  45 2.52  48 2.62  41 2.64  56 2.67
  34  0.544  0.435  0.119-  46 2.52  43 2.62  42 2.64  60 2.67
  35  0.892  0.456  0.119-  48 2.52  45 2.62  42 2.64  59 2.67
  36  0.565  0.108  0.119-  47 2.52  44 2.62  42 2.64  58 2.67
  37  0.000  0.000  0.000-   7 2.62  10 2.62   9 2.62  11 2.62   8 2.62  12 2.62
  38  0.000  0.000  0.500-   1 2.62   4 2.62   2 2.62   6 2.62   5 2.62   3 2.62
  39  0.333  0.667  0.261-  13 2.63  14 2.63  15 2.63  27 2.64  26 2.64  25 2.64
  40  0.667  0.333  0.739-  16 2.63  18 2.63  17 2.63  29 2.64  30 2.64  28 2.64
  41  0.333  0.667  0.761-  19 2.63  21 2.63  20 2.63  32 2.64  33 2.64  31 2.64
  42  0.667  0.333  0.239-  22 2.63  23 2.63  24 2.63  36 2.64  35 2.64  34 2.64
  43  0.349  0.332  0.971-  17 2.47  31 2.52   8 2.54  34 2.62  11 2.70
  44  0.668  0.018  0.971-  16 2.47  32 2.52   9 2.54  36 2.62  10 2.70
  45  0.982  0.651  0.971-  18 2.47  33 2.52   7 2.54  35 2.62  12 2.70
  46  0.651  0.668  0.029-  15 2.47  34 2.52  12 2.54  31 2.62   9 2.70
  47  0.332  0.982  0.029-  13 2.47  36 2.52  11 2.54  32 2.62   7 2.70
  48  0.018  0.349  0.029-  14 2.47  35 2.52  10 2.54  33 2.62   8 2.70
  49  0.332  0.349  0.529-  20 2.47  28 2.52   5 2.54  25 2.62   2 2.70
  50  0.651  0.982  0.529-  21 2.47  30 2.52   4 2.54  26 2.62   3 2.70
  51  0.018  0.668  0.529-  19 2.47  29 2.52   6 2.54  27 2.62   1 2.70
  52  0.668  0.651  0.471-  24 2.47  25 2.52   3 2.54  28 2.62   6 2.70
  53  0.349  0.018  0.471-  23 2.47  26 2.52   1 2.54  30 2.62   5 2.70
  54  0.982  0.332  0.471-  22 2.47  27 2.52   2 2.54  29 2.62   4 2.70
  55  0.324  0.000  0.750-  19 2.49  17 2.49   5 2.61   7 2.61  30 2.67  32 2.67
  56  0.000  0.324  0.750-  16 2.49  20 2.49   8 2.61   4 2.61  33 2.67  29 2.67
  57  0.676  0.676  0.750-  18 2.49  21 2.49   9 2.61   6 2.61  28 2.67  31 2.67
  58  0.676  1.000  0.250-  22 2.49  15 2.49   3 2.61  10 2.61  26 2.67  36 2.67
  59  1.000  0.676  0.250-  13 2.49  24 2.49  12 2.61   1 2.61  35 2.67  27 2.67
  60  0.324  0.324  0.250-  14 2.49  23 2.49  11 2.61   2 2.61  34 2.67  25 2.67
 
  LATTYP: Found a hexagonal cell.
 ALAT       =    11.2350907958
 C/A-ratio  =     1.0874262737
  
  Lattice vectors:
  
 A1 = (   5.6175453979,   9.7298740430,   0.0000000000)
 A2 = ( -11.2350813305,  -0.0000054648,  -0.0000502247)
 A3 = (   0.0000506794,  -0.0000292597,  12.2173329190)


Analysis of symmetry for initial positions (statically):
=====================================================================
 Subroutine PRICEL returns:
 Original cell was already a primitive cell.
 

 Routine SETGRP: Setting up the symmetry group for a 
 hexagonal supercell.


 Subroutine GETGRP returns: Found  4 space group operations
 (whereof  2 operations were pure point group operations)
 out of a pool of 24 trial point group operations.


The static configuration has the point symmetry S_2 .
 The point group associated with its full space group is C_2h.


Analysis of symmetry for dynamics (positions and initial velocities):
=====================================================================
 Subroutine PRICEL returns:
 Original cell was already a primitive cell.
 

 Routine SETGRP: Setting up the symmetry group for a 
 hexagonal supercell.


 Subroutine GETGRP returns: Found  4 space group operations
 (whereof  2 operations were pure point group operations)
 out of a pool of 24 trial point group operations.


The dynamic configuration has the point symmetry S_2 .
 The point group associated with its full space group is C_2h.


 Subroutine INISYM returns: Found  4 space group operations
 (whereof  2 operations are pure point group operations),
 and found     1 'primitive' translations


----------------------------------------------------------------------------------------

                                     Primitive cell                                     

  volume of cell :    1335.5487

  direct lattice vectors                    reciprocal lattice vectors
    11.235081330  0.000005465  0.000050225     0.089006896  0.051388098 -0.000000246
    -5.617535933  9.729868578 -0.000050225    -0.000000050  0.102776282  0.000000246
     0.000050679 -0.000029260 12.217332919    -0.000000366  0.000000211  0.081850925

  length of vectors
    11.235081331 11.235081331 12.217332919     0.102776282  0.102776282  0.081850925

  position of ions in fractional coordinates (direct lattice)
     0.110861681  0.880893378  0.387913663
     0.119116289  0.229985035  0.387907547
     0.770014454  0.889131422  0.387906212
     0.889138319  0.119106622  0.612086337
     0.229985546  0.110868578  0.612093788
     0.880883711  0.770014965  0.612092453
     0.119106622  0.889138319  0.887913663
     0.110868578  0.229985546  0.887906212
     0.770014965  0.880883711  0.887907547
     0.880893378  0.110861681  0.112086352
     0.229985035  0.119116289  0.112092468
     0.889131422  0.770014454  0.112093803
     0.214157056  0.770112648  0.139334009
     0.229889842  0.444030935  0.139325752
     0.555967544  0.785844609  0.139321790
     0.785842959  0.229887367  0.860665961
     0.444032426  0.214155406  0.860678180
     0.770110173  0.555969035  0.860674218
     0.229887367  0.785842959  0.639334039
     0.214155406  0.444032426  0.639321820
     0.555969035  0.770110173  0.639325782
     0.770112648  0.214157056  0.360665991
     0.444030935  0.229889842  0.360674248
     0.785844609  0.555967544  0.360678210
     0.435426032  0.543549235  0.381373640
     0.456435039  0.891848465  0.381359555
     0.108155263  0.564583596  0.381360473
     0.564573968  0.456450765  0.618626360
     0.891844737  0.435416404  0.618639527
     0.543564961  0.108151535  0.618640445
     0.456450765  0.564573968  0.881373640
     0.435416404  0.891844737  0.881360473
     0.108151535  0.543564961  0.881359555
     0.543549235  0.435426032  0.118626375
     0.891848465  0.456435039  0.118640460
     0.564583596  0.108155263  0.118639542
     0.000000000  0.000000000  0.000000000
     0.000000000  1.000000000  0.500000000
     0.333322256  0.666673403  0.260968540
     0.666677744  0.333326597  0.739031460
     0.333326597  0.666677744  0.760968540
     0.666673403  0.333322256  0.239031460
     0.349040061  0.331502733  0.970708664
     0.668497382  0.017534565  0.970711677
     0.982462513  0.650962705  0.970711473
     0.650959968  0.668497296  0.029291336
     0.331502647  0.982465435  0.029288323
     0.017537487  0.349037324  0.029288527
     0.331502733  0.349040061  0.529291336
     0.650962705  0.982462513  0.529288527
     0.017534565  0.668497382  0.529288323
     0.668497296  0.650959968  0.470708664
     0.349037324  0.017537487  0.470711473
     0.982465435  0.331502647  0.470711677
     0.323747085  0.000003039  0.750000397
     0.000003039  0.323747085  0.749999603
     0.676249855  0.676249855  0.750000000
     0.676252915  0.999996961  0.249999603
     0.999996961  0.676252915  0.250000397
     0.323750145  0.323750145  0.250000000

  ion indices of the primitive-cell ions
   primitive index   ion index
                 1           1
                 2           2
                 3           3
                 4           4
                 5           5
                 6           6
                 7           7
                 8           8
                 9           9
                10          10
                11          11
                12          12
                13          13
                14          14
                15          15
                16          16
                17          17
                18          18
                19          19
                20          20
                21          21
                22          22
                23          23
                24          24
                25          25
                26          26
                27          27
                28          28
                29          29
                30          30
                31          31
                32          32
                33          33
                34          34
                35          35
                36          36
                37          37
                38          38
                39          39
                40          40
                41          41
                42          42
                43          43
                44          44
                45          45
                46          46
                47          47
                48          48
                49          49
                50          50
                51          51
                52          52
                53          53
                54          54
                55          55
                56          56
                57          57
                58          58
                59          59
                60          60

----------------------------------------------------------------------------------------

 
 
 KPOINTS: Automatic mesh                          

Automatic generation of k-mesh.
 Grid dimensions read from file:
 generate k-points for:    1    1    1

 Generating k-lattice:

  Cartesian coordinates                     Fractional coordinates (reciprocal lattice)
     0.089006896  0.051388098 -0.000000246     1.000000000  0.000000000  0.000000000
    -0.000000050  0.102776282  0.000000246     0.000000000  1.000000000 -0.000000000
    -0.000000366  0.000000211  0.081850925    -0.000000000  0.000000000  1.000000000

  Length of vectors
     0.102776282  0.102776282  0.081850925

  Shift w.r.t. Gamma in fractional coordinates (k-lattice)
     0.000000000  0.000000000  0.000000000

 
 Subroutine IBZKPT returns following result:
 ===========================================
 
 Found      1 irreducible k-points:
 
 Following reciprocal coordinates:
            Coordinates               Weight
  0.000000  0.000000  0.000000      1.000000
 
 Following cartesian coordinates:
            Coordinates               Weight
  0.000000  0.000000  0.000000      1.000000
 


--------------------------------------------------------------------------------------------------------




 Dimension of arrays:
   k-points           NKPTS =      1   k-points in BZ     NKDIM =      1   number of bands    NBANDS=    240
   number of dos      NEDOS =    301   number of ions     NIONS =     60
   non local maximal  LDIM  =      6   non local SUM 2l+1 LMDIM =     18
   total plane-waves  NPLWV = 677376
   max r-space proj   IRMAX =      1   max aug-charges    IRDMAX=  38864
   dimension x,y,z NGX =    84 NGY =   84 NGZ =   96
   dimension x,y,z NGXF=   168 NGYF=  168 NGZF=  192
   support grid    NGXF=   168 NGYF=  168 NGZF=  192
   ions per type =              36   6  18
   NGX,Y,Z   is equivalent  to a cutoff of  12.43, 12.43, 13.06 a.u.
   NGXF,Y,Z  is equivalent  to a cutoff of  24.86, 24.86, 26.13 a.u.

 SYSTEM =  "Li3ErCl6"                              
 POSCAR =  Li3ErCl6                                

 Startparameter for this run:
   NWRITE =      2    write-flag & timer
   PREC   = a         normal or accurate (medium, high low for compatibility)
   ISTART =      0    job   : 0-new  1-cont  2-samecut
   ICHARG =      2    charge: 1-file 2-atom 10-const
   ISPIN  =      1    spin polarized calculation?
   LNONCOLLINEAR =      F non collinear calculations
   LSORBIT =      F    spin-orbit coupling
   INIWAV =      1    electr: 0-lowe 1-rand  2-diag
   LASPH  =      F    aspherical Exc in radial PAW
 Electronic Relaxation 1
   ENCUT  =  520.0 eV  38.22 Ry    6.18 a.u.  20.89 20.89 22.72*2*pi/ulx,y,z
   ENINI  =  520.0     initial cutoff
   ENAUG  =  356.2 eV  augmentation charge cutoff
   NELM   =    200;   NELMIN=  6; NELMDL= -5     # of ELM steps 
   EDIFF  = 0.1E-04   stopping-criterion for ELM
   LREAL  =      F    real-space projection
   NLSPLINE    = F    spline interpolate recip. space projectors
   LCOMPAT=      F    compatible to vasp.4.4
   GGA_COMPAT  = T    GGA compatible to vasp.4.4-vasp.4.6
   LMAXPAW     = -100 max onsite density
   LMAXMIX     =    2 max onsite mixed and CHGCAR
   VOSKOWN=      0    Vosko Wilk Nusair interpolation
   ROPT   =    0.00000   0.00000   0.00000
 Ionic relaxation
   EDIFFG = -.1E-01   stopping-criterion for IOM
   NSW    =    100    number of steps for IOM
   NBLOCK =      1;   KBLOCK =    100    inner block; outer block 
   IBRION =      2    ionic relax: 0-MD 1-quasi-New 2-CG
   NFREE  =      1    steps in history (QN), initial steepest desc. (CG)
   ISIF   =      2    stress and relaxation
   IWAVPR =     11    prediction:  0-non 1-charg 2-wave 3-comb
   ISYM   =      2    0-nonsym 1-usesym 2-fastsym
   LCORR  =      T    Harris-Foulkes like correction to forces

   POTIM  = 0.5000    time-step for ionic-motion
   TEIN   =    0.0    initial temperature
   TEBEG  =    0.0;   TEEND  =   0.0 temperature during run
   SMASS  =  -3.00    Nose mass-parameter (am)
   estimated Nose-frequenzy (Omega)   =  0.10E-29 period in steps = 0.13E+47 mass=  -0.288E-26a.u.
   SCALEE = 1.0000    scale energy and forces
   NPACO  =    256;   APACO  = 10.0  distance and # of slots for P.C.
   PSTRESS=    0.0 pullay stress

  Mass of Ions in am
   POMASS =  35.45167.26  7.01
  Ionic Valenz
   ZVAL   =   7.00  9.00  1.00
  Atomic Wigner-Seitz radii
   RWIGS  =  -1.00 -1.00 -1.00
  virtual crystal weights 
   VCA    =   1.00  1.00  1.00
   NELECT =     324.0000    total number of electrons
   NUPDOWN=      -1.0000    fix difference up-down

 DOS related values:
   EMIN   =  10.00;   EMAX   =-10.00  energy-range for DOS
   EFERMI =   0.00;   METHOD = LEGACY      
   ISMEAR =     0;   SIGMA  =   0.10  broadening in eV -4-tet -1-fermi 0-gaus

 Electronic relaxation 2 (details)
   IALGO  =     38    algorithm
   LDIAG  =      T    sub-space diagonalisation (order eigenvalues)
   LSUBROT=      F    optimize rotation matrix (better conditioning)
   TURBO    =      0    0=normal 1=particle mesh
   IRESTART =      0    0=no restart 2=restart with 2 vectors
   NREBOOT  =      0    no. of reboots
   NMIN     =      0    reboot dimension
   EREF     =   0.00    reference energy to select bands
   IMIX   =      4    mixing-type and parameters
     AMIX     =   0.20;   BMIX     =  0.00
     AMIX_MAG =   0.80;   BMIX_MAG =  0.00
     AMIN     =   0.10
     WC   =   100.;   INIMIX=   1;  MIXPRE=   1;  MAXMIX= -45

 Intra band minimization:
   WEIMIN = 0.0010     energy-eigenvalue tresh-hold
   EBREAK =  0.10E-07  absolut break condition
   DEPER  =   0.30     relativ break condition  

   TIME   =   0.40     timestep for ELM

  volume/ion in A,a.u.               =      22.26       150.21
  Fermi-wavevector in a.u.,A,eV,Ry     =   1.021026  1.929458 14.183980  1.042493
  Thomas-Fermi vector in A             =   2.154627
 
 Write flags
   LWAVE        =      F    write WAVECAR
   LDOWNSAMPLE  =      F    k-point downsampling of WAVECAR
   LCHARG       =      F    write CHGCAR
   LVTOT        =      F    write LOCPOT, total local potential
   LVHAR        =      F    write LOCPOT, Hartree potential only
   LELF         =      F    write electronic localiz. function (ELF)
   LORBIT       =     11    0 simple, 1 ext, 2 COOP (PROOUT), +10 PAW based schemes


 Dipole corrections
   LMONO  =      F    monopole corrections only (constant potential shift)
   LDIPOL =      F    correct potential (dipole corrections)
   IDIPOL =      0    1-x, 2-y, 3-z, 4-all directions 
   EPSILON=  1.0000000 bulk dielectric constant

 Exchange correlation treatment:
   GGA     =    --    GGA type
   LEXCH   =     8    internal setting for exchange type
   LIBXC   =     F    Libxc                    
   VOSKOWN =     0    Vosko Wilk Nusair interpolation
   LHFCALC =     F    Hartree Fock is set to
   LHFONE  =     F    Hartree Fock one center treatment
   AEXX    =    0.0000 exact exchange contribution

 Linear response parameters
   LEPSILON=     F    determine dielectric tensor
   LRPA    =     F    only Hartree local field effects (RPA)
   LNABLA  =     F    use nabla operator in PAW spheres
   LVEL    =     F    velocity operator in full k-point grid
   CSHIFT  =0.1000    complex shift for real part using Kramers Kronig
   OMEGAMAX=  -1.0    maximum frequency
   DEG_THRESHOLD= 0.2000000E-02 threshold for treating states as degnerate
   RTIME   =   -0.100 relaxation time in fs
  (WPLASMAI=    0.000 imaginary part of plasma frequency in eV, 0.658/RTIME)
   DFIELD  = 0.0000000 0.0000000 0.0000000 field for delta impulse in time
 
  Optional k-point grid parameters
   LKPOINTS_OPT  =     F    use optional k-point grid
   KPOINTS_OPT_MODE=     1    mode for optional k-point grid
 
 Orbital magnetization related:
   ORBITALMAG=     F  switch on orbital magnetization
   LCHIMAG   =     F  perturbation theory with respect to B field
   DQ        =  0.001000  dq finite difference perturbation B field
   LLRAUG    =     F  two centre corrections for induced B field
   LBONE     =     F  B-component reconstruction in AE one-centre
   LVGVCALC  =     T  calculate vGv susceptibility
   LVGVAPPL  =     F  apply vGv susceptibility instead of pGv for G=0

 Random number generation:
   RANDOM_GENERATOR = DEFAULT
   PCG_SEED         = not used


--------------------------------------------------------------------------------------------------------


 conjugate gradient relaxation of ions
 charge density and potential will be updated during run
 non-spin polarized calculation
 Variant of blocked Davidson
 Davidson routine will perform the subspace rotation
 perform sub-space diagonalisation
    after iterative eigenvector-optimisation
 modified Broyden-mixing scheme, WC =      100.0
 initial mixing is a Kerker type mixing with AMIX =  0.2000 and BMIX =      0.0000
 Hartree-type preconditioning will be used
 using additional bands           78
 reciprocal scheme for non local part
 use partial core corrections
 calculate Harris-corrections to forces 
   (improved forces if not selfconsistent)
 use gradient corrections 
 use of overlap-Matrix (Vanderbilt PP)
 Gauss-broadening in eV      SIGMA  =   0.10


--------------------------------------------------------------------------------------------------------


  energy-cutoff  :      520.00
  volume of cell :     1335.55
      direct lattice vectors                 reciprocal lattice vectors
    11.235081330  0.000005465  0.000050225     0.089006896  0.051388098 -0.000000246
    -5.617535933  9.729868578 -0.000050225    -0.000000050  0.102776282  0.000000246
     0.000050679 -0.000029260 12.217332919    -0.000000366  0.000000211  0.081850925

  length of vectors
    11.235081331 11.235081331 12.217332919     0.102776282  0.102776282  0.081850925


 
 k-points in units of 2pi/SCALE and weight: Automatic mesh                          
   0.00000000  0.00000000  0.00000000       1.000
 
 k-points in reciprocal lattice and weights: Automatic mesh                          
   0.00000000  0.00000000  0.00000000       1.000
 
 position of ions in fractional coordinates (direct lattice) 
   0.11086168  0.88089338  0.38791366
   0.11911629  0.22998503  0.38790755
   0.77001445  0.88913142  0.38790621
   0.88913832  0.11910662  0.61208634
   0.22998555  0.11086858  0.61209379
   0.88088371  0.77001497  0.61209245
   0.11910662  0.88913832  0.88791366
   0.11086858  0.22998555  0.88790621
   0.77001497  0.88088371  0.88790755
   0.88089338  0.11086168  0.11208635
   0.22998503  0.11911629  0.11209247
   0.88913142  0.77001445  0.11209380
   0.21415706  0.77011265  0.13933401
   0.22988984  0.44403093  0.13932575
   0.55596754  0.78584461  0.13932179
   0.78584296  0.22988737  0.86066596
   0.44403243  0.21415541  0.86067818
   0.77011017  0.55596904  0.86067422
   0.22988737  0.78584296  0.63933404
   0.21415541  0.44403243  0.63932182
   0.55596904  0.77011017  0.63932578
   0.77011265  0.21415706  0.36066599
   0.44403093  0.22988984  0.36067425
   0.78584461  0.55596754  0.36067821
   0.43542603  0.54354924  0.38137364
   0.45643504  0.89184847  0.38135955
   0.10815526  0.56458360  0.38136047
   0.56457397  0.45645076  0.61862636
   0.89184474  0.43541640  0.61863953
   0.54356496  0.10815153  0.61864045
   0.45645076  0.56457397  0.88137364
   0.43541640  0.89184474  0.88136047
   0.10815153  0.54356496  0.88135955
   0.54354924  0.43542603  0.11862637
   0.89184847  0.45643504  0.11864046
   0.56458360  0.10815526  0.11863954
   0.00000000  0.00000000  0.00000000
   0.00000000  0.00000000  0.50000000
   0.33332226  0.66667340  0.26096854
   0.66667774  0.33332660  0.73903146
   0.33332660  0.66667774  0.76096854
   0.66667340  0.33332226  0.23903146
   0.34904006  0.33150273  0.97070866
   0.66849738  0.01753457  0.97071168
   0.98246251  0.65096271  0.97071147
   0.65095997  0.66849730  0.02929134
   0.33150265  0.98246543  0.02928832
   0.01753749  0.34903732  0.02928853
   0.33150273  0.34904006  0.52929134
   0.65096271  0.98246251  0.52928853
   0.01753457  0.66849738  0.52928832
   0.66849730  0.65095997  0.47070866
   0.34903732  0.01753749  0.47071147
   0.98246543  0.33150265  0.47071168
   0.32374709  0.00000304  0.75000040
   0.00000304  0.32374709  0.74999960
   0.67624986  0.67624986  0.75000000
   0.67625291  0.99999696  0.24999960
   0.99999696  0.67625291  0.25000040
   0.32375014  0.32375014  0.25000000
 
 position of ions in cartesian coordinates  (Angst):
  -3.70289055  8.57096606  4.73923169
   0.04635165  2.23771346  4.73919008
   3.65646696  8.65112475  4.73917335
   9.32048662  1.15887873  7.47810122
   1.96112912  1.07872004  7.47815956
   5.57124442  7.49213132  7.47814284
  -3.65654888  8.65117366 10.84789815
  -0.04628959  2.23770377 10.84783981
   3.70282986  8.57086097 10.84785654
   9.27414495  1.07867112  1.36943495
   1.91476622  1.15898381  1.36947657
   5.66388566  7.49214102  1.36949329
  -1.92005647  7.49309195  1.70226205
   0.08847840  4.32035982  1.70217834
   1.83183731  7.64616373  1.70212914
   7.53765263  2.23675298 10.51507050
   3.78575835  2.08368120 10.51520341
   5.52911801  5.40948467 10.51515421
  -1.83166539  7.64613126  7.81092887
  -0.08828230  4.32035961  7.81079597
   1.92026816  7.49305510  7.81084517
   7.44926155  2.08371366  4.40640441
   3.69732749  2.23678983  4.40648812
   5.70587871  5.40948488  4.40653732
   1.83865885  5.28865385  4.65936330
   0.11811332  8.67755969  4.65917477
  -1.95641613  5.49331362  4.65918494
   3.77893723  4.44119094  7.55796962
   7.57401221  4.23653116  7.55814798
   5.49948276  1.05228509  7.55815815
   1.95679158  5.49320722 10.76802976
  -0.11798647  8.67750867 10.76785140
  -1.83835974  5.28879043 10.76784123
   3.66080450  4.23663756  1.44930335
   7.45595582  4.44105435  1.44949187
   5.73558255  1.05233611  1.44948170
   0.00000000  0.00000000  0.00000000
   0.00002534 -0.00001463  6.10866646
  -0.00014592  6.48663878  3.18832279
   5.61774199  3.24320600  9.02901013
  -0.00009619  6.48666639  9.29698925
   5.61769227  3.24317839  2.92034367
   2.05931416  3.22545153 11.85947179
   7.41217060  0.17058426 11.85954043
   7.38128904  6.33375854 11.85952189
   3.55828209  6.50439353  0.35786113
  -1.79457420  9.55926052  0.35779249
  -1.76369313  3.39608653  0.35781103
   1.76374191  3.39610025  6.46652759
   1.79462729  9.55921920  6.46647749
  -3.55827898  6.50437628  6.46645895
   3.85385433  6.33374482  5.75080533
   3.82296911  0.17062558  5.75085543
   9.17587489  3.22546878  5.75087397
   3.63734577  0.00000940  9.16302079
  -1.81858873  3.14999465  9.16297858
   3.79890227  6.57980397  9.16299969
   1.98025031  9.72983539  3.05431212
   7.43618481  6.57985014  3.05435434
   1.81869381  3.15004082  3.05433323
 


--------------------------------------------------------------------------------------------------------


 k-point   1 :   0.0000 0.0000 0.0000  plane waves:   35913

 maximum and minimum number of plane-waves per node :     35913    35913

 maximum number of plane-waves:     35913
 maximum index in each direction: 
   IXMAX=   20   IYMAX=   20   IZMAX=   22
   IXMIN=  -20   IYMIN=  -20   IZMIN=  -22


 serial   3D FFT for wavefunctions
 parallel 3D FFT for charge:
    minimum data exchange during FFTs selected (reduces bandwidth)


 total amount of memory used by VASP MPI-rank0   126424. kBytes
=======================================================================

   base      :      30000. kBytes
   nonl-proj :      50045. kBytes
   fftplans  :       6999. kBytes
   grid      :      35529. kBytes
   one-center:        933. kBytes
   wavefun   :       2918. kBytes
 
     INWAV:  cpu time      0.0000: real time      0.0000
 Broyden mixing: mesh for mixing (old mesh)
   NGX = 41   NGY = 41   NGZ = 45
  (NGX  =168   NGY  =168   NGZ  =192)
  gives a total of  75645 points

 initial charge density was supplied:
 charge density of overlapping atoms calculated
 number of electron     324.0000000 magnetization 
 keeping initial charge density in first step


--------------------------------------------------------------------------------------------------------


 Maximum index for augmentation-charges         1259 (set IRDMAX)


--------------------------------------------------------------------------------------------------------


 First call to EWALD:  gamma=   0.161
 Maximum number of real-space cells 3x 3x 3
 Maximum number of reciprocal cells 3x 3x 3

    FEWALD:  cpu time      0.0021: real time      0.0031


--------------------------------------- Ionic step        1  -------------------------------------------




--------------------------------------- Iteration      1(   1)  ---------------------------------------


    POTLOK:  cpu time      0.0912: real time      0.1962
    SETDIJ:  cpu time      0.0111: real time      0.0443
     EDDAV:  cpu time      3.8398: real time      5.0268
       DOS:  cpu time      0.0016: real time      0.0205
    --------------------------------------------
      LOOP:  cpu time      3.9437: real time      5.2878

 eigenvalue-minimisations  :   816
 total energy-change (2. order) : 0.1980013E+04  (-0.1366789E+05)
 number of electron     324.0000000 magnetization 
 augmentation part      324.0000000 magnetization 

 Free energy of the ion-electron system (eV)
  ---------------------------------------------------
  alpha Z        PSCENC =       542.72806157
  Ewald energy   TEWEN  =    -14352.55972113
  -Hartree energ DENC   =     -3976.99351040
  -exchange      EXHF   =         0.00000000
  -V(xc)+E(xc)   XCENC  =       597.07431785
  PAW double counting   =     15000.40053818   -14653.21605695
  entropy T*S    EENTRO =        -0.08525138
  eigenvalues    EBANDS =       -60.39249559
  atomic energy  EATOM  =     18883.05693546
  Solvation  Ediel_sol  =         0.00000000
  ---------------------------------------------------
  free energy    TOTEN  =      1980.01281760 eV

  energy without entropy =     1980.09806898  energy(sigma->0) =     1980.05544329


--------------------------------------------------------------------------------------------------------




--------------------------------------- Iteration      1(   2)  ---------------------------------------


     EDDAV:  cpu time      3.8898: real time      3.9390
       DOS:  cpu time      0.0002: real time      0.0004
    --------------------------------------------
      LOOP:  cpu time      3.8900: real time      3.9394

 eigenvalue-minimisations  :   864
 total energy-change (2. order) :-0.2068080E+04  (-0.2000085E+04)
 number of electron     324.0000000 magnetization 
 augmentation part      324.0000000 magnetization 

 Free energy of the ion-electron system (eV)
  ---------------------------------------------------
  alpha Z        PSCENC =       542.72806157
  Ewald energy   TEWEN  =    -14352.55972113
  -Hartree energ DENC   =     -3976.99351040
  -exchange      EXHF   =         0.00000000
  -V(xc)+E(xc)   XCENC  =       597.07431785
  PAW double counting   =     15000.40053818   -14653.21605695
  entropy T*S    EENTRO =        -0.00000000
  eigenvalues    EBANDS =     -2128.55751494
  atomic energy  EATOM  =     18883.05693546
  Solvation  Ediel_sol  =         0.00000000
  ---------------------------------------------------
  free energy    TOTEN  =       -88.06695037 eV

  energy without entropy =      -88.06695037  energy(sigma->0) =      -88.06695037


--------------------------------------------------------------------------------------------------------




--------------------------------------- Iteration      1(   3)  ---------------------------------------


     EDDAV:  cpu time      3.4992: real time      3.5632
       DOS:  cpu time      0.0001: real time      0.0001
    --------------------------------------------
      LOOP:  cpu time      3.4993: real time      3.5633

 eigenvalue-minimisations  :   768
 total energy-change (2. order) :-0.1619496E+03  (-0.1614924E+03)
 number of electron     324.0000000 magnetization 
 augmentation part      324.0000000 magnetization 

 Free energy of the ion-electron system (eV)
  ---------------------------------------------------
  alpha Z        PSCENC =       542.72806157
  Ewald energy   TEWEN  =    -14352.55972113
  -Hartree energ DENC   =     -3976.99351040
  -exchange      EXHF   =         0.00000000
  -V(xc)+E(xc)   XCENC  =       597.07431785
  PAW double counting   =     15000.40053818   -14653.21605695
  entropy T*S    EENTRO =        -0.00000000
  eigenvalues    EBANDS =     -2290.50712526
  atomic energy  EATOM  =     18883.05693546
  Solvation  Ediel_sol  =         0.00000000
  ---------------------------------------------------
  free energy    TOTEN  =      -250.01656069 eV

  energy without entropy =     -250.01656069  energy(sigma->0) =     -250.01656069


--------------------------------------------------------------------------------------------------------




--------------------------------------- Iteration      1(   4)  ---------------------------------------


     EDDAV:  cpu time      3.1235: real time      3.1531
       DOS:  cpu time      0.0003: real time      0.0003
    --------------------------------------------
      LOOP:  cpu time      3.1239: real time      3.1535

 eigenvalue-minimisations  :   672
 total energy-change (2. order) :-0.2159748E+01  (-0.2154787E+01)
 number of electron     324.0000000 magnetization 
 augmentation part      324.0000000 magnetization 

 Free energy of the ion-electron system (eV)
  ---------------------------------------------------
  alpha Z        PSCENC =       542.72806157
  Ewald energy   TEWEN  =    -14352.55972113
  -Hartree energ DENC   =     -3976.99351040
  -exchange      EXHF   =         0.00000000
  -V(xc)+E(xc)   XCENC  =       597.07431785
  PAW double counting   =     15000.40053818   -14653.21605695
  entropy T*S    EENTRO =        -0.00000000
  eigenvalues    EBANDS =     -2292.66687309
  atomic energy  EATOM  =     18883.05693546
  Solvation  Ediel_sol  =         0.00000000
  ---------------------------------------------------
  free energy    TOTEN  =      -252.17630851 eV

  energy without entropy =     -252.17630851  energy(sigma->0) =     -252.17630851


--------------------------------------------------------------------------------------------------------




--------------------------------------- Iteration      1(   5)  ---------------------------------------


     EDDAV:  cpu time      4.0816: real time      4.1241
       DOS:  cpu time      0.0002: real time      0.0002
    CHARGE:  cpu time      0.1610: real time      0.2469
    MIXING:  cpu time      0.0032: real time      0.0087
    --------------------------------------------
      LOOP:  cpu time      4.2460: real time      4.3799

 eigenvalue-minimisations  :   912
 total energy-change (2. order) :-0.2387339E+00  (-0.2387183E+00)
 number of electron     323.9999997 magnetization 
 augmentation part      -12.7672374 magnetization 

 Broyden mixing:
  rms(total) = 0.56656E+01    rms(broyden)= 0.56656E+01
  rms(prec ) = 0.57653E+01
  weight for this iteration     100.00

 Free energy of the ion-electron system (eV)
  ---------------------------------------------------
  alpha Z        PSCENC =       542.72806157
  Ewald energy   TEWEN  =    -14352.55972113
  -Hartree energ DENC   =     -3976.99351040
  -exchange      EXHF   =         0.00000000
  -V(xc)+E(xc)   XCENC  =       597.07431785
  PAW double counting   =     15000.40053818   -14653.21605695
  entropy T*S    EENTRO =        -0.00000000
  eigenvalues    EBANDS =     -2292.90560703
  atomic energy  EATOM  =     18883.05693546
  Solvation  Ediel_sol  =         0.00000000
  ---------------------------------------------------
  free energy    TOTEN  =      -252.41504246 eV

  energy without entropy =     -252.41504246  energy(sigma->0) =     -252.41504246


--------------------------------------------------------------------------------------------------------




--------------------------------------- Iteration      1(   6)  ---------------------------------------


    POTLOK:  cpu time      0.0909: real time      0.1176
    SETDIJ:  cpu time      0.0070: real time      0.0073
     EDDAV:  cpu time      3.6774: real time      3.6913
       DOS:  cpu time      0.0010: real time      0.0010
    CHARGE:  cpu time      0.1525: real time      0.1529
    MIXING:  cpu time      0.0041: real time      0.0932
    --------------------------------------------
      LOOP:  cpu time      3.9330: real time      4.0633

 eigenvalue-minimisations  :   816
 total energy-change (2. order) : 0.4296483E+01  (-0.4395628E+00)
 number of electron     323.9999997 magnetization 
 augmentation part      -12.2885614 magnetization 

 Broyden mixing:
  rms(total) = 0.49124E+01    rms(broyden)= 0.49124E+01
  rms(prec ) = 0.49544E+01
  weight for this iteration     100.00

 eigenvalues of (default mixing * dielectric matrix)
  average eigenvalue GAMMA=   5.7878
  5.7878

 Free energy of the ion-electron system (eV)
  ---------------------------------------------------
  alpha Z        PSCENC =       542.72806157
  Ewald energy   TEWEN  =    -14352.55972113
  -Hartree energ DENC   =     -4036.10523540
  -exchange      EXHF   =         0.00000000
  -V(xc)+E(xc)   XCENC  =       603.17160750
  PAW double counting   =     16150.82221002   -15804.14691194
  entropy T*S    EENTRO =        -0.00000000
  eigenvalues    EBANDS =     -2235.08550515
  atomic energy  EATOM  =     18883.05693546
  Solvation  Ediel_sol  =         0.00000000
  ---------------------------------------------------
  free energy    TOTEN  =      -248.11855907 eV

  energy without entropy =     -248.11855907  energy(sigma->0) =     -248.11855907


--------------------------------------------------------------------------------------------------------




--------------------------------------- Iteration      1(   7)  ---------------------------------------


    POTLOK:  cpu time      0.0934: real time      0.1226
    SETDIJ:  cpu time      0.0070: real time      0.0073
     EDDAV:  cpu time      3.6910: real time      3.7060
       DOS:  cpu time      0.0004: real time      0.0004
    CHARGE:  cpu time      0.1532: real time      0.1536
    MIXING:  cpu time      0.0024: real time      0.0084
    --------------------------------------------
      LOOP:  cpu time      3.9474: real time      3.9983

 eigenvalue-minimisations  :   816
 total energy-change (2. order) :-0.2078757E+01  (-0.3428317E+01)
 number of electron     323.9999997 magnetization 
 augmentation part      -10.7333342 magnetization 

 Broyden mixing:
  rms(total) = 0.15746E+01    rms(broyden)= 0.15746E+01
  rms(prec ) = 0.17512E+01
  weight for this iteration     100.00

 eigenvalues of (default mixing * dielectric matrix)
  average eigenvalue GAMMA=   3.6449
  2.2398  5.0499

 Free energy of the ion-electron system (eV)
  ---------------------------------------------------
  alpha Z        PSCENC =       542.72806157
  Ewald energy   TEWEN  =    -14352.55972113
  -Hartree energ DENC   =     -4235.86301392
  -exchange      EXHF   =         0.00000000
  -V(xc)+E(xc)   XCENC  =       623.77704271
  PAW double counting   =     21991.59736033   -21644.47975247
  entropy T*S    EENTRO =        -0.00000000
  eigenvalues    EBANDS =     -2058.45422863
  atomic energy  EATOM  =     18883.05693546
  Solvation  Ediel_sol  =         0.00000000
  ---------------------------------------------------
  free energy    TOTEN  =      -250.19731609 eV

  energy without entropy =     -250.19731609  energy(sigma->0) =     -250.19731609


--------------------------------------------------------------------------------------------------------




--------------------------------------- Iteration      1(   8)  ---------------------------------------


    POTLOK:  cpu time      0.1064: real time      0.1221
    SETDIJ:  cpu time      0.0072: real time      0.0075
     EDDAV:  cpu time      3.6741: real time      3.6899
       DOS:  cpu time      0.0003: real time      0.0003
    CHARGE:  cpu time      0.1532: real time      0.1537
    MIXING:  cpu time      0.0023: real time      0.0023
    --------------------------------------------
      LOOP:  cpu time      3.9435: real time      3.9757

 eigenvalue-minimisations  :   816
 total energy-change (2. order) : 0.3030832E+01  (-0.1450686E+01)
 number of electron     323.9999997 magnetization 
 augmentation part      -11.6144457 magnetization 

 Broyden mixing:
  rms(total) = 0.33542E+00    rms(broyden)= 0.33542E+00
  rms(prec ) = 0.40845E+00
  weight for this iteration     100.00

 eigenvalues of (default mixing * dielectric matrix)
  average eigenvalue GAMMA=   2.6985
  5.1105  1.0270  1.9581

 Free energy of the ion-electron system (eV)
  ---------------------------------------------------
  alpha Z        PSCENC =       542.72806157
  Ewald energy   TEWEN  =    -14352.55972113
  -Hartree energ DENC   =     -4168.05933467
  -exchange      EXHF   =         0.00000000
  -V(xc)+E(xc)   XCENC  =       616.16308466
  PAW double counting   =     22781.39518604   -22429.59039398
  entropy T*S    EENTRO =        -0.00000000
  eigenvalues    EBANDS =     -2120.30030241
  atomic energy  EATOM  =     18883.05693546
  Solvation  Ediel_sol  =         0.00000000
  ---------------------------------------------------
  free energy    TOTEN  =      -247.16648446 eV

  energy without entropy =     -247.16648446  energy(sigma->0) =     -247.16648446


--------------------------------------------------------------------------------------------------------




--------------------------------------- Iteration      1(   9)  ---------------------------------------


    POTLOK:  cpu time      0.0779: real time      0.1114
    SETDIJ:  cpu time      0.0070: real time      0.0070
     EDDAV:  cpu time      3.6894: real time      3.7040
       DOS:  cpu time      0.0011: real time      0.0011
    CHARGE:  cpu time      0.1522: real time      0.1526
    MIXING:  cpu time      0.0023: real time      0.0200
    --------------------------------------------
      LOOP:  cpu time      3.9299: real time      3.9961

 eigenvalue-minimisations  :   816
 total energy-change (2. order) : 0.1893471E+00  (-0.9625571E-01)
 number of electron     323.9999997 magnetization 
 augmentation part      -11.5972248 magnetization 

 Broyden mixing:
  rms(total) = 0.12194E+00    rms(broyden)= 0.12194E+00
  rms(prec ) = 0.15001E+00
  weight for this iteration     100.00

 eigenvalues of (default mixing * dielectric matrix)
  average eigenvalue GAMMA=   2.2511
  4.9633  1.9852  1.0279  1.0279

 Free energy of the ion-electron system (eV)
  ---------------------------------------------------
  alpha Z        PSCENC =       542.72806157
  Ewald energy   TEWEN  =    -14352.55972113
  -Hartree energ DENC   =     -4169.26037230
  -exchange      EXHF   =         0.00000000
  -V(xc)+E(xc)   XCENC  =       617.03936691
  PAW double counting   =     22780.97161509   -22429.78417813
  entropy T*S    EENTRO =        -0.00000000
  eigenvalues    EBANDS =     -2119.16884488
  atomic energy  EATOM  =     18883.05693546
  Solvation  Ediel_sol  =         0.00000000
  ---------------------------------------------------
  free energy    TOTEN  =      -246.97713741 eV

  energy without entropy =     -246.97713741  energy(sigma->0) =     -246.97713741


--------------------------------------------------------------------------------------------------------




--------------------------------------- Iteration      1(  10)  ---------------------------------------


    POTLOK:  cpu time      0.0840: real time      0.1145
    SETDIJ:  cpu time      0.0070: real time      0.0070
     EDDAV:  cpu time      3.6822: real time      3.6973
       DOS:  cpu time      0.0002: real time      0.0002
    CHARGE:  cpu time      0.1511: real time      0.1515
    MIXING:  cpu time      0.0023: real time      0.0024
    --------------------------------------------
      LOOP:  cpu time      3.9268: real time      3.9728

 eigenvalue-minimisations  :   816
 total energy-change (2. order) : 0.3011392E-01  (-0.1160393E-01)
 number of electron     323.9999997 magnetization 
 augmentation part      -11.6032388 magnetization 

 Broyden mixing:
  rms(total) = 0.95016E-01    rms(broyden)= 0.95016E-01
  rms(prec ) = 0.99943E-01
  weight for this iteration     100.00

 eigenvalues of (default mixing * dielectric matrix)
  average eigenvalue GAMMA=   2.1576
  5.2229  2.0153  1.3012  1.3012  0.9473

 Free energy of the ion-electron system (eV)
  ---------------------------------------------------
  alpha Z        PSCENC =       542.72806157
  Ewald energy   TEWEN  =    -14352.55972113
  -Hartree energ DENC   =     -4163.71197638
  -exchange      EXHF   =         0.00000000
  -V(xc)+E(xc)   XCENC  =       616.80210488
  PAW double counting   =     22652.86253218   -22301.85978117
  entropy T*S    EENTRO =        -0.00000000
  eigenvalues    EBANDS =     -2124.26517890
  atomic energy  EATOM  =     18883.05693546
  Solvation  Ediel_sol  =         0.00000000
  ---------------------------------------------------
  free energy    TOTEN  =      -246.94702349 eV

  energy without entropy =     -246.94702349  energy(sigma->0) =     -246.94702349


--------------------------------------------------------------------------------------------------------




--------------------------------------- Iteration      1(  11)  ---------------------------------------


    POTLOK:  cpu time      0.0952: real time      0.1240
    SETDIJ:  cpu time      0.0069: real time      0.0069
     EDDAV:  cpu time      3.6871: real time      3.7017
       DOS:  cpu time      0.0004: real time      0.0004
    CHARGE:  cpu time      0.1505: real time      0.1510
    MIXING:  cpu time      0.0022: real time      0.0022
    --------------------------------------------
      LOOP:  cpu time      3.9422: real time      3.9861

 eigenvalue-minimisations  :   816
 total energy-change (2. order) : 0.2293919E-02  (-0.1966585E-02)
 number of electron     323.9999997 magnetization 
 augmentation part      -11.6086200 magnetization 

 Broyden mixing:
  rms(total) = 0.50767E-01    rms(broyden)= 0.50767E-01
  rms(prec ) = 0.52082E-01
  weight for this iteration     100.00

 eigenvalues of (default mixing * dielectric matrix)
  average eigenvalue GAMMA=   2.1546
  4.9992  2.2316  2.2316  1.0417  1.2117  1.2117

 Free energy of the ion-electron system (eV)
  ---------------------------------------------------
  alpha Z        PSCENC =       542.72806157
  Ewald energy   TEWEN  =    -14352.55972113
  -Hartree energ DENC   =     -4161.53837676
  -exchange      EXHF   =         0.00000000
  -V(xc)+E(xc)   XCENC  =       616.79946410
  PAW double counting   =     22750.71434030   -22399.63964418
  entropy T*S    EENTRO =        -0.00000000
  eigenvalues    EBANDS =     -2126.50578893
  atomic energy  EATOM  =     18883.05693546
  Solvation  Ediel_sol  =         0.00000000
  ---------------------------------------------------
  free energy    TOTEN  =      -246.94472957 eV

  energy without entropy =     -246.94472957  energy(sigma->0) =     -246.94472957


--------------------------------------------------------------------------------------------------------




--------------------------------------- Iteration      1(  12)  ---------------------------------------


    POTLOK:  cpu time      0.1024: real time      0.1233
    SETDIJ:  cpu time      0.0072: real time      0.0075
     EDDAV:  cpu time      3.6791: real time      3.6949
       DOS:  cpu time      0.0002: real time      0.0002
    CHARGE:  cpu time      0.1515: real time      0.1520
    MIXING:  cpu time      0.0024: real time      0.0024
    --------------------------------------------
      LOOP:  cpu time      3.9427: real time      3.9803

 eigenvalue-minimisations  :   816
 total energy-change (2. order) : 0.4751294E-03  (-0.2360573E-03)
 number of electron     323.9999997 magnetization 
 augmentation part      -11.6030017 magnetization 

 Broyden mixing:
  rms(total) = 0.50374E-01    rms(broyden)= 0.50374E-01
  rms(prec ) = 0.51072E-01
  weight for this iteration     100.00

 eigenvalues of (default mixing * dielectric matrix)
  average eigenvalue GAMMA=   2.4125
  5.4328  4.5876  2.1534  1.4935  1.1385  1.1385  0.9430

 Free energy of the ion-electron system (eV)
  ---------------------------------------------------
  alpha Z        PSCENC =       542.72806157
  Ewald energy   TEWEN  =    -14352.55972113
  -Hartree energ DENC   =     -4160.11473878
  -exchange      EXHF   =         0.00000000
  -V(xc)+E(xc)   XCENC  =       616.70958139
  PAW double counting   =     22623.18050412   -22272.27852726
  entropy T*S    EENTRO =        -0.00000000
  eigenvalues    EBANDS =     -2127.66634981
  atomic energy  EATOM  =     18883.05693546
  Solvation  Ediel_sol  =         0.00000000
  ---------------------------------------------------
  free energy    TOTEN  =      -246.94425444 eV

  energy without entropy =     -246.94425444  energy(sigma->0) =     -246.94425444


--------------------------------------------------------------------------------------------------------




--------------------------------------- Iteration      1(  13)  ---------------------------------------


    POTLOK:  cpu time      0.0846: real time      0.1059
    SETDIJ:  cpu time      0.0069: real time      0.0069
     EDDAV:  cpu time      3.4965: real time      3.5116
       DOS:  cpu time      0.0003: real time      0.0003
    CHARGE:  cpu time      0.1508: real time      0.1516
    MIXING:  cpu time      0.0023: real time      0.0023
    --------------------------------------------
      LOOP:  cpu time      3.7414: real time      3.7787

 eigenvalue-minimisations  :   768
 total energy-change (2. order) : 0.8061757E-05  (-0.2282154E-03)
 number of electron     323.9999997 magnetization 
 augmentation part      -11.6108201 magnetization 

 Broyden mixing:
  rms(total) = 0.69698E-02    rms(broyden)= 0.69697E-02
  rms(prec ) = 0.73038E-02
  weight for this iteration     100.00

 eigenvalues of (default mixing * dielectric matrix)
  average eigenvalue GAMMA=   2.2824
  5.4717  4.7297  2.2904  1.5684  1.1417  1.1417  1.0403  0.8757

 Free energy of the ion-electron system (eV)
  ---------------------------------------------------
  alpha Z        PSCENC =       542.72806157
  Ewald energy   TEWEN  =    -14352.55972113
  -Hartree energ DENC   =     -4159.03583465
  -exchange      EXHF   =         0.00000000
  -V(xc)+E(xc)   XCENC  =       616.66423439
  PAW double counting   =     22606.62875054   -22255.76010479
  entropy T*S    EENTRO =        -0.00000000
  eigenvalues    EBANDS =     -2128.66656777
  atomic energy  EATOM  =     18883.05693546
  Solvation  Ediel_sol  =         0.00000000
  ---------------------------------------------------
  free energy    TOTEN  =      -246.94424638 eV

  energy without entropy =     -246.94424638  energy(sigma->0) =     -246.94424638


--------------------------------------------------------------------------------------------------------




--------------------------------------- Iteration      1(  14)  ---------------------------------------


    POTLOK:  cpu time      0.0920: real time      0.1189
    SETDIJ:  cpu time      0.0071: real time      0.0074
     EDDAV:  cpu time      3.6805: real time      3.6948
       DOS:  cpu time      0.0002: real time      0.0002
    CHARGE:  cpu time      0.1508: real time      0.1515
    MIXING:  cpu time      0.0025: real time      0.0025
    --------------------------------------------
      LOOP:  cpu time      3.9330: real time      3.9753

 eigenvalue-minimisations  :   816
 total energy-change (2. order) : 0.6579485E-05  (-0.1644525E-04)
 number of electron     323.9999997 magnetization 
 augmentation part      -11.6107145 magnetization 

 Broyden mixing:
  rms(total) = 0.59076E-02    rms(broyden)= 0.59076E-02
  rms(prec ) = 0.60267E-02
  weight for this iteration     100.00

 eigenvalues of (default mixing * dielectric matrix)
  average eigenvalue GAMMA=   2.1455
  5.4069  4.6209  2.2891  1.7777  1.1908  1.1908  0.9684  0.9326  0.9326

 Free energy of the ion-electron system (eV)
  ---------------------------------------------------
  alpha Z        PSCENC =       542.72806157
  Ewald energy   TEWEN  =    -14352.55972113
  -Hartree energ DENC   =     -4159.33083667
  -exchange      EXHF   =         0.00000000
  -V(xc)+E(xc)   XCENC  =       616.68001255
  PAW double counting   =     22598.30507064   -22247.45009748
  entropy T*S    EENTRO =        -0.00000000
  eigenvalues    EBANDS =     -2128.37366475
  atomic energy  EATOM  =     18883.05693546
  Solvation  Ediel_sol  =         0.00000000
  ---------------------------------------------------
  free energy    TOTEN  =      -246.94423980 eV

  energy without entropy =     -246.94423980  energy(sigma->0) =     -246.94423980


--------------------------------------------------------------------------------------------------------




--------------------------------------- Iteration      1(  15)  ---------------------------------------


    POTLOK:  cpu time      0.0904: real time      0.1133
    SETDIJ:  cpu time      0.0069: real time      0.0070
     EDDAV:  cpu time      2.5808: real time      2.6087
       DOS:  cpu time      0.0002: real time      0.0002
    --------------------------------------------
      LOOP:  cpu time      2.6783: real time      2.7292

 eigenvalue-minimisations  :   528
 total energy-change (2. order) : 0.5649872E-05  (-0.1079825E-05)
 number of electron     323.9999997 magnetization 
 augmentation part      -11.6107145 magnetization 

 Free energy of the ion-electron system (eV)
  ---------------------------------------------------
  alpha Z        PSCENC =       542.72806157
  Ewald energy   TEWEN  =    -14352.55972113
  -Hartree energ DENC   =     -4159.39485277
  -exchange      EXHF   =         0.00000000
  -V(xc)+E(xc)   XCENC  =       616.68115151
  PAW double counting   =     22599.09431441   -22248.23510310
  entropy T*S    EENTRO =        -0.00000000
  eigenvalues    EBANDS =     -2128.31502010
  atomic energy  EATOM  =     18883.05693546
  Solvation  Ediel_sol  =         0.00000000
  ---------------------------------------------------
  free energy    TOTEN  =      -246.94423415 eV

  energy without entropy =     -246.94423415  energy(sigma->0) =     -246.94423415


--------------------------------------------------------------------------------------------------------




 average (electrostatic) potential at core
  the test charge radii are     0.9406  1.3020  0.9748
  (the norm of the test charge is              1.0000)
       1 -93.6308       2 -93.6302       3 -93.6303       4 -93.6308       5 -93.6303
       6 -93.6302       7 -93.6308       8 -93.6303       9 -93.6302      10 -93.6308
      11 -93.6302      12 -93.6303      13 -93.5398      14 -93.5385      15 -93.5386
      16 -93.5398      17 -93.5386      18 -93.5385      19 -93.5398      20 -93.5386
      21 -93.5385      22 -93.5398      23 -93.5385      24 -93.5386      25 -93.5828
      26 -93.5845      27 -93.5846      28 -93.5828      29 -93.5846      30 -93.5845
      31 -93.5828      32 -93.5846      33 -93.5845      34 -93.5828      35 -93.5845
      36 -93.5846      37 -36.1680      38 -36.1680      39 -36.2474      40 -36.2474
      41 -36.2474      42 -36.2474      43 -28.4401      44 -28.4416      45 -28.4414
      46 -28.4401      47 -28.4416      48 -28.4414      49 -28.4401      50 -28.4414
      51 -28.4416      52 -28.4401      53 -28.4414      54 -28.4416      55 -28.3244
      56 -28.3244      57 -28.3232      58 -28.3244      59 -28.3244      60 -28.3232
 
 
 
 E-fermi :   0.0852     XC(G=0):  -8.2191     alpha+bet : -8.3650

 Fermi energy:         0.0852185663

 k-point     1 :       0.0000    0.0000    0.0000
  band No.  band energies     occupation 
      1     -23.1664      2.00000
      2     -23.1664      2.00000
      3     -23.1663      2.00000
      4     -23.1662      2.00000
      5     -23.1661      2.00000
      6     -23.1660      2.00000
      7     -23.1660      2.00000
      8     -23.1659      2.00000
      9     -23.1519      2.00000
     10     -23.1518      2.00000
     11     -23.1515      2.00000
     12     -23.1513      2.00000
     13     -23.1274      2.00000
     14     -23.1270      2.00000
     15     -23.1033      2.00000
     16     -23.1032      2.00000
     17     -23.1032      2.00000
     18     -23.1032      2.00000
     19     -13.6650      2.00000
     20     -13.4695      2.00000
     21     -13.4114      2.00000
     22     -13.3561      2.00000
     23     -13.3171      2.00000
     24     -13.2789      2.00000
     25     -13.2785      2.00000
     26     -13.2586      2.00000
     27     -13.2581      2.00000
     28     -13.2372      2.00000
     29     -13.2333      2.00000
     30     -13.2330      2.00000
     31     -13.1768      2.00000
     32     -13.1765      2.00000
     33     -13.1663      2.00000
     34     -13.1662      2.00000
     35     -13.1350      2.00000
     36     -13.1347      2.00000
     37     -13.1286      2.00000
     38     -13.0654      2.00000
     39     -13.0601      2.00000
     40     -13.0596      2.00000
     41     -13.0509      2.00000
     42     -13.0503      2.00000
     43     -13.0457      2.00000
     44     -13.0455      2.00000
     45     -13.0450      2.00000
     46     -13.0450      2.00000
     47     -13.0377      2.00000
     48     -12.9858      2.00000
     49     -12.9751      2.00000
     50     -12.9749      2.00000
     51     -12.9291      2.00000
     52     -12.9290      2.00000
     53     -12.9278      2.00000
     54     -12.9067      2.00000
     55      -3.2159      2.00000
     56      -3.0074      2.00000
     57      -2.9115      2.00000
     58      -2.9000      2.00000
     59      -2.8995      2.00000
     60      -2.8841      2.00000
     61      -2.7974      2.00000
     62      -2.7970      2.00000
     63      -2.7885      2.00000
     64      -2.7847      2.00000
     65      -2.6674      2.00000
     66      -2.6671      2.00000
     67      -2.6557      2.00000
     68      -2.6553      2.00000
     69      -2.5722      2.00000
     70      -2.5717      2.00000
     71      -2.5275      2.00000
     72      -2.5274      2.00000
     73      -2.5227      2.00000
     74      -2.5223      2.00000
     75      -2.4724      2.00000
     76      -2.4723      2.00000
     77      -2.4357      2.00000
     78      -2.4304      2.00000
     79      -2.4304      2.00000
     80      -2.3571      2.00000
     81      -2.3365      2.00000
     82      -2.3365      2.00000
     83      -2.2729      2.00000
     84      -2.2726      2.00000
     85      -2.2044      2.00000
     86      -2.1933      2.00000
     87      -2.1402      2.00000
     88      -2.1379      2.00000
     89      -2.1373      2.00000
     90      -2.0637      2.00000
     91      -2.0517      2.00000
     92      -2.0493      2.00000
     93      -2.0491      2.00000
     94      -1.8936      2.00000
     95      -1.8585      2.00000
     96      -1.8521      2.00000
     97      -1.7809      2.00000
     98      -1.7768      2.00000
     99      -1.7766      2.00000
    100      -1.7635      2.00000
    101      -1.7627      2.00000
    102      -1.7604      2.00000
    103      -1.7306      2.00000
    104      -1.7304      2.00000
    105      -1.7243      2.00000
    106      -1.6126      2.00000
    107      -1.6123      2.00000
    108      -1.5342      2.00000
    109      -1.5015      2.00000
    110      -1.5009      2.00000
    111      -1.4869      2.00000
    112      -1.4865      2.00000
    113      -1.4799      2.00000
    114      -1.4796      2.00000
    115      -1.3879      2.00000
    116      -1.3864      2.00000
    117      -1.2941      2.00000
    118      -1.2552      2.00000
    119      -1.2545      2.00000
    120      -1.2436      2.00000
    121      -1.1302      2.00000
    122      -1.1298      2.00000
    123      -1.0763      2.00000
    124      -1.0707      2.00000
    125      -1.0616      2.00000
    126      -1.0616      2.00000
    127      -1.0371      2.00000
    128      -1.0371      2.00000
    129      -1.0221      2.00000
    130      -1.0197      2.00000
    131      -1.0196      2.00000
    132      -0.9897      2.00000
    133      -0.9895      2.00000
    134      -0.9848      2.00000
    135      -0.9845      2.00000
    136      -0.9411      2.00000
    137      -0.9175      2.00000
    138      -0.8800      2.00000
    139      -0.8758      2.00000
    140      -0.8753      2.00000
    141      -0.8154      2.00000
    142      -0.8153      2.00000
    143      -0.7816      2.00000
    144      -0.7815      2.00000
    145      -0.7683      2.00000
    146      -0.7621      2.00000
    147      -0.6869      2.00000
    148      -0.6421      2.00000
    149      -0.6417      2.00000
    150      -0.6249      2.00000
    151      -0.6248      2.00000
    152      -0.6104      2.00000
    153      -0.6102      2.00000
    154      -0.5770      2.00000
    155      -0.5460      2.00000
    156      -0.5310      2.00000
    157      -0.5305      2.00000
    158      -0.4592      2.00000
    159      -0.4589      2.00000
    160      -0.4574      2.00000
    161      -0.4571      2.00000
    162      -0.4087      2.00000
    163       4.9066      0.00000
    164       4.9199      0.00000
    165       4.9199      0.00000
    166       4.9609      0.00000
    167       4.9610      0.00000
    168       5.0169      0.00000
    169       5.0473      0.00000
    170       5.0473      0.00000
    171       5.0574      0.00000
    172       5.0574      0.00000
    173       5.1143      0.00000
    174       5.1144      0.00000
    175       5.1824      0.00000
    176       5.2435      0.00000
    177       5.2532      0.00000
    178       5.2673      0.00000
    179       5.3203      0.00000
    180       5.3203      0.00000
    181       5.6943      0.00000
    182       6.7205      0.00000
    183       6.7205      0.00000
    184       6.8538      0.00000
    185       6.9534      0.00000
    186       6.9535      0.00000
    187       6.9873      0.00000
    188       6.9873      0.00000
    189       7.0828      0.00000
    190       7.1656      0.00000
    191       7.1883      0.00000
    192       7.1884      0.00000
    193       7.2248      0.00000
    194       7.2249      0.00000
    195       7.2332      0.00000
    196       7.2334      0.00000
    197       7.2987      0.00000
    198       7.3974      0.00000
    199       7.4749      0.00000
    200       7.4977      0.00000
    201       7.7219      0.00000
    202       7.7219      0.00000
    203       7.7481      0.00000
    204       7.7482      0.00000
    205       7.9055      0.00000
    206       7.9397      0.00000
    207       7.9515      0.00000
    208       7.9521      0.00000
    209       8.1301      0.00000
    210       8.1306      0.00000
    211       8.2201      0.00000
    212       8.2205      0.00000
    213       8.3355      0.00000
    214       8.3356      0.00000
    215       8.3518      0.00000
    216       8.3719      0.00000
    217       8.5832      0.00000
    218       8.5832      0.00000
    219       8.6492      0.00000
    220       8.6907      0.00000
    221       8.6909      0.00000
    222       8.7055      0.00000
    223       8.7062      0.00000
    224       8.8802      0.00000
    225       8.8804      0.00000
    226       9.1946      0.00000
    227       9.2194      0.00000
    228       9.2199      0.00000
    229       9.2390      0.00000
    230       9.2431      0.00000
    231       9.2723      0.00000
    232       9.2729      0.00000
    233       9.2967      0.00000
    234       9.4239      0.00000
    235       9.4246      0.00000
    236       9.4918      0.00000
    237       9.4947      0.00000
    238       9.5068      0.00000
    239       9.7049      0.00000
    240       9.7883      0.00000


--------------------------------------------------------------------------------------------------------


 soft charge-density along one line, spin component           1
         0         1         2         3         4         5         6         7         8         9
 total charge-density along one line
 
 pseudopotential strength for first ion, spin component:           1
 47.757  50.123   0.002   0.010  -0.007   0.002   0.013  -0.009
 50.123  52.610   0.002   0.011  -0.008   0.002   0.013  -0.009
  0.002   0.002   9.146   0.002  -0.001  11.343   0.002  -0.001
  0.010   0.011   0.002   9.146  -0.001   0.002  11.343  -0.001
 -0.007  -0.008  -0.001  -0.001   9.147  -0.001  -0.001  11.344
  0.002   0.002  11.343   0.002  -0.001  14.083   0.002  -0.001
  0.013   0.013   0.002  11.343  -0.001   0.002  14.082  -0.002
 -0.009  -0.009  -0.001  -0.001  11.344  -0.001  -0.002  14.084
 total augmentation occupancy for first ion, spin component:           1
  2.214  -1.290  -0.260  -1.092   0.756   0.078   0.332  -0.220
 -1.290   2.190   0.263   1.080  -0.751  -0.094  -0.381   0.257
 -0.260   0.263   3.548   0.270  -0.136  -0.879  -0.160   0.084
 -1.092   1.080   0.270   3.463  -0.178  -0.160  -0.830   0.110
  0.756  -0.751  -0.136  -0.178   3.616   0.084   0.110  -0.915
  0.078  -0.094  -0.879  -0.160   0.084   0.256   0.068  -0.040
  0.332  -0.381  -0.160  -0.830   0.110   0.068   0.239  -0.055
 -0.220   0.257   0.084   0.110  -0.915  -0.040  -0.055   0.269


------------------------ aborting loop because EDIFF is reached ----------------------------------------





 total charge

# of ion       s       p       d       tot
------------------------------------------
    1        1.592   3.581   0.000   5.173
    2        1.592   3.581   0.000   5.173
    3        1.592   3.581   0.000   5.173
    4        1.592   3.581   0.000   5.173
    5        1.592   3.581   0.000   5.173
    6        1.592   3.581   0.000   5.173
    7        1.592   3.581   0.000   5.173
    8        1.592   3.581   0.000   5.173
    9        1.592   3.581   0.000   5.173
   10        1.592   3.581   0.000   5.173
   11        1.592   3.581   0.000   5.173
   12        1.592   3.581   0.000   5.173
   13        1.591   3.586   0.000   5.177
   14        1.591   3.586   0.000   5.177
   15        1.591   3.586   0.000   5.177
   16        1.591   3.586   0.000   5.177
   17        1.591   3.586   0.000   5.177
   18        1.591   3.586   0.000   5.177
   19        1.591   3.586   0.000   5.177
   20        1.591   3.586   0.000   5.177
   21        1.591   3.586   0.000   5.177
   22        1.591   3.586   0.000   5.177
   23        1.591   3.586   0.000   5.177
   24        1.591   3.586   0.000   5.177
   25        1.591   3.584   0.000   5.175
   26        1.591   3.584   0.000   5.175
   27        1.591   3.584   0.000   5.175
   28        1.591   3.584   0.000   5.175
   29        1.591   3.584   0.000   5.175
   30        1.591   3.584   0.000   5.175
   31        1.591   3.584   0.000   5.175
   32        1.591   3.584   0.000   5.175
   33        1.591   3.584   0.000   5.175
   34        1.591   3.584   0.000   5.175
   35        1.591   3.584   0.000   5.175
   36        1.591   3.584   0.000   5.175
   37        0.347   6.824   1.047   8.219
   38        0.347   6.824   1.047   8.219
   39        0.337   6.787   1.014   8.138
   40        0.337   6.787   1.014   8.138
   41        0.337   6.787   1.014   8.138
   42        0.337   6.787   1.014   8.138
   43        0.055   0.100   0.000   0.155
   44        0.055   0.100   0.000   0.155
   45        0.055   0.100   0.000   0.155
   46        0.055   0.100   0.000   0.155
   47        0.055   0.100   0.000   0.155
   48        0.055   0.100   0.000   0.155
   49        0.055   0.100   0.000   0.155
   50        0.055   0.100   0.000   0.155
   51        0.055   0.100   0.000   0.155
   52        0.055   0.100   0.000   0.155
   53        0.055   0.100   0.000   0.155
   54        0.055   0.100   0.000   0.155
   55        0.057   0.107   0.000   0.164
   56        0.057   0.107   0.000   0.164
   57        0.057   0.107   0.000   0.164
   58        0.057   0.107   0.000   0.164
   59        0.057   0.107   0.000   0.164
   60        0.057   0.107   0.000   0.164
--------------------------------------------------
tot         60.332 171.645   6.149 238.126
 
    CHARGE:  cpu time      0.1504: real time      0.1512
    FORLOC:  cpu time      0.0196: real time      0.0202
    FORNL :  cpu time      0.4438: real time      0.4557
    STRESS:  cpu time      2.9216: real time      2.9356
    FORCOR:  cpu time      0.0850: real time      0.0875
    FORHAR:  cpu time      0.0332: real time      0.0404
    MIXING:  cpu time      0.0046: real time      0.0046
    OFIELD:  cpu time      0.0003: real time      0.0014

  FORCE on cell =-STRESS in cart. coord.  units (eV):
  Direction    XX          YY          ZZ          XY          YZ          ZX
  --------------------------------------------------------------------------------------
  Alpha Z   542.72806   542.72806   542.72806
  Ewald   -4580.89173 -4580.92389 -5190.81481    -0.02786     0.09578    -0.16590
  Hartree  1490.65308  1490.64042  1178.18710    -0.01096     0.04263    -0.07383
  E(xc)   -1203.60747 -1203.60742 -1203.73308     0.00004    -0.00007     0.00013
  Local   -3212.25272 -3212.20884 -2302.40527     0.03800    -0.13720     0.23764
  n-local  2920.14106  2920.13967  2912.46662    -0.00120     0.00241    -0.00420
  augment  -563.02636  -563.02677  -563.93727    -0.00035    -0.00014     0.00023
  Kinetic  4608.00861  4608.01024  4626.36377     0.00143     0.00173    -0.00299
  Fock        0.00000     0.00000     0.00000     0.00000     0.00000     0.00000
  -------------------------------------------------------------------------------------
  Total       1.75253     1.75149    -1.14486    -0.00090     0.00515    -0.00892
  in kB       2.10240     2.10115    -1.37342    -0.00108     0.00618    -0.01070
  external pressure =        0.94 kB  Pullay stress =        0.00 kB


 VOLUME and BASIS-vectors are now :
 -----------------------------------------------------------------------------
  energy-cutoff  :      520.00
  volume of cell :     1335.55
      direct lattice vectors                 reciprocal lattice vectors
    11.235081330  0.000005465  0.000050225     0.089006896  0.051388098 -0.000000246
    -5.617535933  9.729868578 -0.000050225    -0.000000050  0.102776282  0.000000246
     0.000050679 -0.000029260 12.217332919    -0.000000366  0.000000211  0.081850925

  length of vectors
    11.235081331 11.235081331 12.217332919     0.102776282  0.102776282  0.081850925


 FORCES acting on ions
    electron-ion (+dipol)            ewald-force                    non-local-force                 convergence-correction
 -----------------------------------------------------------------------------------------------
   -.488E+02 0.182E+02 0.608E+02   0.492E+02 -.182E+02 -.615E+02   -.441E+00 -.514E-01 0.727E+00   -.424E-02 0.414E-02 -.681E-03
   0.859E+01 -.513E+02 0.608E+02   -.885E+01 0.517E+02 -.615E+02   0.264E+00 -.358E+00 0.728E+00   -.146E-02 -.579E-02 -.593E-03
   0.402E+02 0.331E+02 0.608E+02   -.403E+02 -.335E+02 -.615E+02   0.177E+00 0.409E+00 0.728E+00   0.573E-02 0.161E-02 -.659E-03
   0.488E+02 -.182E+02 -.608E+02   -.492E+02 0.182E+02 0.615E+02   0.441E+00 0.514E-01 -.727E+00   0.424E-02 -.414E-02 0.681E-03
   -.402E+02 -.331E+02 -.608E+02   0.403E+02 0.335E+02 0.615E+02   -.177E+00 -.409E+00 -.728E+00   -.573E-02 -.161E-02 0.659E-03
   -.859E+01 0.513E+02 -.608E+02   0.885E+01 -.517E+02 0.615E+02   -.264E+00 0.358E+00 -.728E+00   0.146E-02 0.579E-02 0.593E-03
   -.402E+02 0.331E+02 0.608E+02   0.404E+02 -.335E+02 -.615E+02   -.176E+00 0.407E+00 0.727E+00   -.571E-02 0.160E-02 -.681E-03
   -.857E+01 -.513E+02 0.608E+02   0.883E+01 0.517E+02 -.615E+02   -.265E+00 -.358E+00 0.728E+00   0.147E-02 -.577E-02 -.659E-03
   0.487E+02 0.182E+02 0.608E+02   -.492E+02 -.182E+02 -.615E+02   0.442E+00 -.497E-01 0.728E+00   0.428E-02 0.416E-02 -.593E-03
   0.402E+02 -.331E+02 -.608E+02   -.404E+02 0.335E+02 0.615E+02   0.176E+00 -.407E+00 -.727E+00   0.571E-02 -.160E-02 0.681E-03
   -.487E+02 -.182E+02 -.608E+02   0.492E+02 0.182E+02 0.615E+02   -.442E+00 0.497E-01 -.728E+00   -.428E-02 -.416E-02 0.593E-03
   0.857E+01 0.513E+02 -.608E+02   -.883E+01 -.517E+02 0.615E+02   0.265E+00 0.358E+00 -.728E+00   -.147E-02 0.577E-02 0.659E-03
   0.509E+02 -.395E+02 0.461E+02   -.511E+02 0.395E+02 -.464E+02   0.252E+00 -.932E-01 0.357E+00   0.731E-02 -.412E-02 0.363E-02
   0.876E+01 0.637E+02 0.461E+02   -.870E+01 -.640E+02 -.464E+02   -.467E-01 0.267E+00 0.358E+00   -.235E-03 0.832E-02 0.360E-02
   -.596E+02 -.243E+02 0.461E+02   0.598E+02 0.245E+02 -.464E+02   -.209E+00 -.172E+00 0.358E+00   -.713E-02 -.430E-02 0.357E-02
   -.509E+02 0.395E+02 -.461E+02   0.511E+02 -.395E+02 0.464E+02   -.252E+00 0.932E-01 -.357E+00   -.731E-02 0.412E-02 -.363E-02
   0.596E+02 0.243E+02 -.461E+02   -.598E+02 -.245E+02 0.464E+02   0.209E+00 0.172E+00 -.358E+00   0.713E-02 0.430E-02 -.357E-02
   -.876E+01 -.637E+02 -.461E+02   0.870E+01 0.640E+02 0.464E+02   0.467E-01 -.267E+00 -.358E+00   0.235E-03 -.832E-02 -.360E-02
   0.596E+02 -.243E+02 0.461E+02   -.598E+02 0.245E+02 -.464E+02   0.207E+00 -.172E+00 0.357E+00   0.722E-02 -.427E-02 0.363E-02
   -.873E+01 0.637E+02 0.461E+02   0.868E+01 -.640E+02 -.464E+02   0.444E-01 0.267E+00 0.358E+00   0.163E-03 0.832E-02 0.357E-02
   -.508E+02 -.395E+02 0.461E+02   0.511E+02 0.395E+02 -.464E+02   -.254E+00 -.929E-01 0.358E+00   -.732E-02 -.395E-02 0.360E-02
   -.596E+02 0.243E+02 -.461E+02   0.598E+02 -.245E+02 0.464E+02   -.207E+00 0.172E+00 -.357E+00   -.722E-02 0.427E-02 -.363E-02
   0.508E+02 0.395E+02 -.461E+02   -.511E+02 -.395E+02 0.464E+02   0.254E+00 0.929E-01 -.358E+00   0.732E-02 0.395E-02 -.360E-02
   0.873E+01 -.637E+02 -.461E+02   -.868E+01 0.640E+02 0.464E+02   -.444E-01 -.267E+00 -.358E+00   -.163E-03 -.832E-02 -.357E-02
   -.542E+02 0.212E+02 -.481E+02   0.545E+02 -.213E+02 0.483E+02   -.321E+00 0.913E-01 -.202E+00   -.632E-02 0.530E-02 -.122E-01
   0.871E+01 -.576E+02 -.482E+02   -.878E+01 0.579E+02 0.484E+02   0.812E-01 -.320E+00 -.200E+00   -.147E-02 -.800E-02 -.121E-01
   0.455E+02 0.363E+02 -.482E+02   -.458E+02 -.366E+02 0.484E+02   0.236E+00 0.231E+00 -.199E+00   0.772E-02 0.288E-02 -.123E-01
   0.542E+02 -.212E+02 0.481E+02   -.545E+02 0.213E+02 -.483E+02   0.321E+00 -.913E-01 0.202E+00   0.632E-02 -.530E-02 0.122E-01
   -.455E+02 -.363E+02 0.482E+02   0.458E+02 0.366E+02 -.484E+02   -.236E+00 -.231E+00 0.199E+00   -.772E-02 -.288E-02 0.123E-01
   -.871E+01 0.576E+02 0.482E+02   0.878E+01 -.579E+02 -.484E+02   -.812E-01 0.320E+00 0.200E+00   0.147E-02 0.800E-02 0.121E-01
   -.454E+02 0.363E+02 -.481E+02   0.457E+02 -.365E+02 0.483E+02   -.239E+00 0.232E+00 -.202E+00   -.775E-02 0.282E-02 -.122E-01
   -.871E+01 -.576E+02 -.482E+02   0.878E+01 0.579E+02 0.484E+02   -.820E-01 -.319E+00 -.199E+00   0.137E-02 -.813E-02 -.123E-01
   0.542E+02 0.212E+02 -.482E+02   -.545E+02 -.213E+02 0.484E+02   0.317E+00 0.895E-01 -.200E+00   0.619E-02 0.527E-02 -.121E-01
   0.454E+02 -.363E+02 0.481E+02   -.457E+02 0.365E+02 -.483E+02   0.239E+00 -.232E+00 0.202E+00   0.775E-02 -.282E-02 0.122E-01
   -.542E+02 -.212E+02 0.482E+02   0.545E+02 0.213E+02 -.484E+02   -.317E+00 -.895E-01 0.200E+00   -.619E-02 -.527E-02 0.121E-01
   0.871E+01 0.576E+02 0.482E+02   -.878E+01 -.579E+02 -.484E+02   0.820E-01 0.319E+00 0.199E+00   -.137E-02 0.813E-02 0.123E-01
   -.100E-05 -.162E-05 0.652E-06   -.534E-05 -.875E-05 0.496E-05   0.304E-21 0.217E-22 0.127E-21   -.389E-08 -.634E-08 0.182E-08
   -.900E-06 -.167E-05 -.172E-06   -.491E-05 -.900E-05 -.149E-05   -.197E-21 0.490E-22 0.916E-22   -.354E-08 -.654E-08 -.964E-09
   -.415E-01 0.166E-01 -.368E+01   0.430E-01 -.176E-01 0.343E+01   0.180E-02 -.664E-03 0.250E+00   -.204E-03 -.400E-04 -.223E-02
   0.414E-01 -.166E-01 0.368E+01   -.431E-01 0.175E-01 -.343E+01   -.180E-02 0.664E-03 -.250E+00   0.204E-03 0.400E-04 0.223E-02
   -.351E-01 0.276E-01 -.368E+01   0.367E-01 -.285E-01 0.343E+01   0.148E-02 -.123E-02 0.250E+00   -.676E-04 0.197E-03 -.223E-02
   0.351E-01 -.276E-01 0.368E+01   -.367E-01 0.285E-01 -.343E+01   -.148E-02 0.123E-02 -.250E+00   0.676E-04 -.197E-03 0.223E-02
   0.535E+00 -.211E+01 -.106E+00   -.370E+00 0.204E+01 -.208E+00   -.163E+00 0.826E-01 0.310E+00   -.802E-04 -.155E-03 -.136E-03
   0.157E+01 0.152E+01 -.108E+00   -.158E+01 -.134E+01 -.206E+00   0.952E-02 -.182E+00 0.310E+00   0.175E-03 0.133E-04 -.134E-03
   -.210E+01 0.601E+00 -.107E+00   0.195E+01 -.702E+00 -.207E+00   0.154E+00 0.996E-01 0.310E+00   -.936E-04 0.141E-03 -.133E-03
   -.535E+00 0.211E+01 0.106E+00   0.371E+00 -.204E+01 0.208E+00   0.163E+00 -.826E-01 -.310E+00   0.802E-04 0.155E-03 0.136E-03
   -.157E+01 -.152E+01 0.108E+00   0.158E+01 0.134E+01 0.206E+00   -.952E-02 0.182E+00 -.310E+00   -.175E-03 -.133E-04 0.134E-03
   0.210E+01 -.601E+00 0.107E+00   -.195E+01 0.702E+00 0.207E+00   -.154E+00 -.996E-01 -.310E+00   0.936E-04 -.141E-03 0.133E-03
   -.210E+01 -.594E+00 0.106E+00   0.195E+01 0.697E+00 0.208E+00   0.153E+00 -.100E+00 -.310E+00   -.937E-04 -.147E-03 0.136E-03
   0.157E+01 -.152E+01 0.107E+00   -.158E+01 0.134E+01 0.207E+00   0.949E-02 0.183E+00 -.310E+00   0.169E-03 -.107E-04 0.133E-03
   0.528E+00 0.212E+01 0.108E+00   -.365E+00 -.204E+01 0.206E+00   -.163E+00 -.830E-01 -.310E+00   -.762E-04 0.159E-03 0.134E-03
   0.210E+01 0.594E+00 -.106E+00   -.195E+01 -.697E+00 -.208E+00   -.153E+00 0.100E+00 0.310E+00   0.937E-04 0.147E-03 -.136E-03
   -.157E+01 0.152E+01 -.107E+00   0.158E+01 -.134E+01 -.207E+00   -.949E-02 -.183E+00 0.310E+00   -.169E-03 0.107E-04 -.133E-03
   -.528E+00 -.212E+01 -.108E+00   0.365E+00 0.204E+01 -.206E+00   0.163E+00 0.830E-01 0.310E+00   0.762E-04 -.159E-03 -.134E-03
   0.427E+01 0.842E-03 -.984E-03   -.424E+01 -.366E-03 0.981E-03   -.312E-01 -.187E-03 0.961E-04   0.105E-03 -.276E-05 -.425E-05
   -.213E+01 0.370E+01 0.985E-03   0.212E+01 -.367E+01 -.979E-03   0.154E-01 -.271E-01 -.961E-04   -.547E-04 0.892E-04 0.425E-05
   -.214E+01 -.370E+01 0.161E-06   0.212E+01 0.367E+01 0.103E-05   0.157E-01 0.272E-01 0.195E-17   -.539E-04 -.933E-04 0.646E-09
   -.427E+01 -.842E-03 0.985E-03   0.424E+01 0.366E-03 -.978E-03   0.312E-01 0.187E-03 -.961E-04   -.105E-03 0.276E-05 0.425E-05
   0.213E+01 -.370E+01 -.985E-03   -.212E+01 0.367E+01 0.978E-03   -.154E-01 0.271E-01 0.961E-04   0.547E-04 -.892E-04 -.425E-05
   0.214E+01 0.370E+01 -.167E-07   -.212E+01 -.367E+01 0.353E-07   -.157E-01 -.272E-01 -.195E-17   0.539E-04 0.933E-04 -.505E-09
 -----------------------------------------------------------------------------------------------
   -.329E-04 -.570E-04 -.110E-02   -.755E-14 -.130E-12 -.103E-12   0.201E-15 -.153E-15 -.222E-15   -.223E-07 -.386E-07 -.158E-06
 
 
 POSITION                                       TOTAL-FORCE (eV/Angst)
 -----------------------------------------------------------------------------------
     -3.70289      8.57097      4.73923        -0.017677      0.004285      0.038071
      0.04635      2.23771      4.73919         0.004838     -0.018856      0.038769
      3.65647      8.65112      4.73917         0.013644      0.013934      0.038734
      9.32049      1.15888      7.47810         0.017677     -0.004285     -0.038071
      1.96113      1.07872      7.47816        -0.013644     -0.013934     -0.038734
      5.57124      7.49213      7.47814        -0.004838      0.018856     -0.038769
     -3.65655      8.65117     10.84790        -0.012549      0.013166      0.038071
     -0.04629      2.23770     10.84784        -0.005245     -0.018783      0.038734
      3.70283      8.57086     10.84786         0.018749      0.005238      0.038769
      9.27414      1.07867      1.36943         0.012549     -0.013166     -0.038071
      1.91477      1.15898      1.36948        -0.018749     -0.005238     -0.038769
      5.66389      7.49214      1.36949         0.005245      0.018783     -0.038734
     -1.92006      7.49309      1.70226         0.013530     -0.017246      0.029896
      0.08848      4.32036      1.70218         0.007659      0.021667      0.030757
      1.83184      7.64616      1.70213        -0.023086     -0.003234      0.031043
      7.53765      2.23675     10.51507        -0.013530      0.017246     -0.029896
      3.78576      2.08368     10.51520         0.023086      0.003234     -0.031043
      5.52912      5.40948     10.51515        -0.007659     -0.021667     -0.030757
     -1.83167      7.64613      7.81093         0.021701     -0.003095      0.029896
     -0.08828      4.32036      7.81080        -0.008742      0.021610      0.031043
      1.92027      7.49306      7.81085        -0.014935     -0.017466      0.030757
      7.44926      2.08371      4.40640        -0.021701      0.003095     -0.029896
      3.69733      2.23679      4.40649         0.014935      0.017466     -0.030757
      5.70588      5.40948      4.40654         0.008742     -0.021610     -0.031043
      1.83866      5.28865      4.65936        -0.011673     -0.004496     -0.019896
      0.11811      8.67756      4.65917         0.009690     -0.005478     -0.018283
     -1.95642      5.49331      4.65918        -0.000500      0.011291     -0.018098
      3.77894      4.44119      7.55797         0.011673      0.004496      0.019896
      7.57401      4.23653      7.55815         0.000500     -0.011291      0.018098
      5.49948      1.05229      7.55816        -0.009690      0.005478      0.018283
      1.95679      5.49321     10.76803        -0.001942      0.012357     -0.019896
     -0.11799      8.67751     10.76785        -0.010028     -0.005213     -0.018098
     -1.83836      5.28879     10.76784         0.009589     -0.005652     -0.018283
      3.66080      4.23664      1.44930         0.001942     -0.012357      0.019896
      7.45596      4.44105      1.44949        -0.009589      0.005652      0.018283
      5.73558      1.05234      1.44948         0.010028      0.005213      0.018098
      0.00000      0.00000      0.00000         0.000000      0.000000     -0.000000
      0.00003     -0.00001      6.10867         0.000000      0.000000     -0.000000
     -0.00015      6.48664      3.18832         0.003201     -0.001660     -0.007624
      5.61774      3.24321      9.02901        -0.003201      0.001660      0.007624
     -0.00010      6.48667      9.29699         0.003038     -0.001942     -0.007624
      5.61769      3.24318      2.92034        -0.003038      0.001942      0.007624
      2.05931      3.22545     11.85947         0.000707      0.003376     -0.003586
      7.41217      0.17058     11.85954        -0.002778     -0.001198     -0.003712
      7.38129      6.33376     11.85952         0.002007     -0.002111     -0.003857
      3.55828      6.50439      0.35786        -0.000707     -0.003376      0.003586
     -1.79457      9.55926      0.35779         0.002778      0.001198      0.003712
     -1.76369      3.39609      0.35781        -0.002007      0.002111      0.003857
      1.76374      3.39610      6.46653         0.002571      0.002300      0.003586
      1.79463      9.55922      6.46648        -0.002832      0.000683      0.003857
     -3.55828      6.50438      6.46646         0.000351     -0.003004      0.003712
      3.85385      6.33374      5.75081        -0.002571     -0.002300     -0.003586
      3.82297      0.17063      5.75086         0.002832     -0.000683     -0.003857
      9.17587      3.22547      5.75087        -0.000351      0.003004     -0.003712
      3.63735      0.00001      9.16302        -0.001074      0.000285      0.000086
     -1.81859      3.14999      9.16298         0.000784     -0.000788     -0.000086
      3.79890      6.57980      9.16300         0.000322      0.000557     -0.000000
      1.98025      9.72984      3.05431         0.001074     -0.000285     -0.000086
      7.43618      6.57985      3.05435        -0.000784      0.000788      0.000086
      1.81869      3.15004      3.05433        -0.000322     -0.000557     -0.000000
 -----------------------------------------------------------------------------------
    total drift:                               -0.000033     -0.000057     -0.001098


--------------------------------------------------------------------------------------------------------



  FREE ENERGIE OF THE ION-ELECTRON SYSTEM (eV)
  ---------------------------------------------------
  free  energy   TOTEN  =      -246.94423415 eV

  energy  without entropy=     -246.94423415  energy(sigma->0) =     -246.94423415
 


--------------------------------------------------------------------------------------------------------


    POTLOK:  cpu time      0.0879: real time      0.0894


--------------------------------------------------------------------------------------------------------




--------------------------------------------------------------------------------------------------------


    WAVPRE:  cpu time      0.0338: real time      0.1295
    FEWALD:  cpu time      0.0010: real time      0.0011
    ORTHCH:  cpu time      0.3546: real time      0.3564
     LOOP+:  cpu time     60.8235: real time     63.2231


--------------------------------------- Ionic step        2  -------------------------------------------




--------------------------------------- Iteration      2(   1)  ---------------------------------------


    POTLOK:  cpu time      0.0767: real time      0.0839
    SETDIJ:  cpu time      0.0071: real time      0.0071
     EDDAV:  cpu time      2.9324: real time      2.9444
       DOS:  cpu time      0.0002: real time      0.0002
    CHARGE:  cpu time      0.1536: real time      0.1545
    MIXING:  cpu time      0.0020: real time      0.0020
    --------------------------------------------
      LOOP:  cpu time      3.1719: real time      3.1921

 eigenvalue-minimisations  :   624
 total energy-change (2. order) :-0.1081149E-04  (-0.1870271E-01)
 number of electron     323.9999999 magnetization 
 augmentation part      -11.6093728 magnetization 

 Broyden mixing:
  rms(total) = 0.24873E-01    rms(broyden)= 0.24873E-01
  rms(prec ) = 0.25598E-01
  weight for this iteration     100.00

 Free energy of the ion-electron system (eV)
  ---------------------------------------------------
  alpha Z        PSCENC =       542.72806157
  Ewald energy   TEWEN  =    -14348.17346818
  -Hartree energ DENC   =     -4163.49451464
  -exchange      EXHF   =         0.00000000
  -V(xc)+E(xc)   XCENC  =       616.72847694
  PAW double counting   =     22594.17076272   -22243.31546165
  entropy T*S    EENTRO =        -0.00000000
  eigenvalues    EBANDS =     -2128.64504282
  atomic energy  EATOM  =     18883.05693546
  Solvation  Ediel_sol  =         0.00000000
  ---------------------------------------------------
  free energy    TOTEN  =      -246.94425061 eV

  energy without entropy =     -246.94425061  energy(sigma->0) =     -246.94425061


--------------------------------------------------------------------------------------------------------




--------------------------------------- Iteration      2(   2)  ---------------------------------------


    POTLOK:  cpu time      0.0774: real time      0.1273
    SETDIJ:  cpu time      0.0069: real time      0.0070
     EDDAV:  cpu time      3.5088: real time      3.5227
       DOS:  cpu time      0.0003: real time      0.0003
    CHARGE:  cpu time      0.1507: real time      0.1511
    MIXING:  cpu time      0.0021: real time      0.0021
    --------------------------------------------
      LOOP:  cpu time      3.7462: real time      3.8105

 eigenvalue-minimisations  :   768
 total energy-change (2. order) :-0.1883811E-02  (-0.2016207E-02)
 number of electron     323.9999999 magnetization 
 augmentation part      -11.6090752 magnetization 

 Broyden mixing:
  rms(total) = 0.19489E-01    rms(broyden)= 0.19488E-01
  rms(prec ) = 0.19937E-01
  weight for this iteration     100.00

 eigenvalues of (default mixing * dielectric matrix)
  average eigenvalue GAMMA=   0.7113
  0.7113

 Free energy of the ion-electron system (eV)
  ---------------------------------------------------
  alpha Z        PSCENC =       542.72806157
  Ewald energy   TEWEN  =    -14348.17346818
  -Hartree energ DENC   =     -4163.58933906
  -exchange      EXHF   =         0.00000000
  -V(xc)+E(xc)   XCENC  =       616.72715647
  PAW double counting   =     22598.49917726   -22247.63787655
  entropy T*S    EENTRO =        -0.00000000
  eigenvalues    EBANDS =     -2128.55678139
  atomic energy  EATOM  =     18883.05693546
  Solvation  Ediel_sol  =         0.00000000
  ---------------------------------------------------
  free energy    TOTEN  =      -246.94613443 eV

  energy without entropy =     -246.94613443  energy(sigma->0) =     -246.94613443


--------------------------------------------------------------------------------------------------------




--------------------------------------- Iteration      2(   3)  ---------------------------------------


    POTLOK:  cpu time      0.0837: real time      0.1041
    SETDIJ:  cpu time      0.0071: real time      0.0075
     EDDAV:  cpu time      3.7238: real time      3.7548
       DOS:  cpu time      0.0003: real time      0.0003
    CHARGE:  cpu time      0.1509: real time      0.1513
    MIXING:  cpu time      0.0020: real time      0.0020
    --------------------------------------------
      LOOP:  cpu time      3.9677: real time      4.0199

 eigenvalue-minimisations  :   816
 total energy-change (2. order) : 0.4460353E-04  (-0.1980755E-04)
 number of electron     323.9999999 magnetization 
 augmentation part      -11.6095593 magnetization 

 Broyden mixing:
  rms(total) = 0.15379E-01    rms(broyden)= 0.15379E-01
  rms(prec ) = 0.15652E-01
  weight for this iteration     100.00

 eigenvalues of (default mixing * dielectric matrix)
  average eigenvalue GAMMA=   1.9197
  1.0861  2.7532

 Free energy of the ion-electron system (eV)
  ---------------------------------------------------
  alpha Z        PSCENC =       542.72806157
  Ewald energy   TEWEN  =    -14348.17346818
  -Hartree energ DENC   =     -4163.68403786
  -exchange      EXHF   =         0.00000000
  -V(xc)+E(xc)   XCENC  =       616.72756488
  PAW double counting   =     22600.37685740   -22249.51540426
  entropy T*S    EENTRO =        -0.00000000
  eigenvalues    EBANDS =     -2128.46259882
  atomic energy  EATOM  =     18883.05693546
  Solvation  Ediel_sol  =         0.00000000
  ---------------------------------------------------
  free energy    TOTEN  =      -246.94608982 eV

  energy without entropy =     -246.94608982  energy(sigma->0) =     -246.94608982


--------------------------------------------------------------------------------------------------------




--------------------------------------- Iteration      2(   4)  ---------------------------------------


    POTLOK:  cpu time      0.0836: real time      0.1471
    SETDIJ:  cpu time      0.0069: real time      0.0073
     EDDAV:  cpu time      3.3286: real time      3.3418
       DOS:  cpu time      0.0002: real time      0.0002
    CHARGE:  cpu time      0.1505: real time      0.1510
    MIXING:  cpu time      0.0023: real time      0.0023
    --------------------------------------------
      LOOP:  cpu time      3.5720: real time      3.6496

 eigenvalue-minimisations  :   720
 total energy-change (2. order) : 0.3923450E-04  (-0.3092343E-04)
 number of electron     323.9999999 magnetization 
 augmentation part      -11.6103418 magnetization 

 Broyden mixing:
  rms(total) = 0.55969E-02    rms(broyden)= 0.55969E-02
  rms(prec ) = 0.56915E-02
  weight for this iteration     100.00

 eigenvalues of (default mixing * dielectric matrix)
  average eigenvalue GAMMA=   1.6759
  3.1396  1.1889  0.6992

 Free energy of the ion-electron system (eV)
  ---------------------------------------------------
  alpha Z        PSCENC =       542.72806157
  Ewald energy   TEWEN  =    -14348.17346818
  -Hartree energ DENC   =     -4163.92211231
  -exchange      EXHF   =         0.00000000
  -V(xc)+E(xc)   XCENC  =       616.73131144
  PAW double counting   =     22605.69080706   -22254.83378311
  entropy T*S    EENTRO =        -0.00000000
  eigenvalues    EBANDS =     -2128.22380251
  atomic energy  EATOM  =     18883.05693546
  Solvation  Ediel_sol  =         0.00000000
  ---------------------------------------------------
  free energy    TOTEN  =      -246.94605059 eV

  energy without entropy =     -246.94605059  energy(sigma->0) =     -246.94605059


--------------------------------------------------------------------------------------------------------




--------------------------------------- Iteration      2(   5)  ---------------------------------------


    POTLOK:  cpu time      0.0773: real time      0.1056
    SETDIJ:  cpu time      0.0072: real time      0.0072
     EDDAV:  cpu time      3.4865: real time      3.5018
       DOS:  cpu time      0.0002: real time      0.0002
    CHARGE:  cpu time      0.1512: real time      0.1517
    MIXING:  cpu time      0.0021: real time      0.0021
    --------------------------------------------
      LOOP:  cpu time      3.7244: real time      3.7684

 eigenvalue-minimisations  :   768
 total energy-change (2. order) :-0.3897610E-05  (-0.5222375E-05)
 number of electron     323.9999999 magnetization 
 augmentation part      -11.6102841 magnetization 

 Broyden mixing:
  rms(total) = 0.31625E-02    rms(broyden)= 0.31625E-02
  rms(prec ) = 0.32891E-02
  weight for this iteration     100.00

 eigenvalues of (default mixing * dielectric matrix)
  average eigenvalue GAMMA=   1.8457
  4.3886  1.0997  1.0997  0.7948

 Free energy of the ion-electron system (eV)
  ---------------------------------------------------
  alpha Z        PSCENC =       542.72806157
  Ewald energy   TEWEN  =    -14348.17346818
  -Hartree energ DENC   =     -4163.91542136
  -exchange      EXHF   =         0.00000000
  -V(xc)+E(xc)   XCENC  =       616.73194837
  PAW double counting   =     22606.45968446   -22255.60496694
  entropy T*S    EENTRO =        -0.00000000
  eigenvalues    EBANDS =     -2128.22882786
  atomic energy  EATOM  =     18883.05693546
  Solvation  Ediel_sol  =         0.00000000
  ---------------------------------------------------
  free energy    TOTEN  =      -246.94605448 eV

  energy without entropy =     -246.94605448  energy(sigma->0) =     -246.94605448


--------------------------------------------------------------------------------------------------------




--------------------------------------- Iteration      2(   6)  ---------------------------------------


    POTLOK:  cpu time      0.0890: real time      0.1137
    SETDIJ:  cpu time      0.0069: real time      0.0070
     EDDAV:  cpu time      2.0351: real time      2.0425
       DOS:  cpu time      0.0002: real time      0.0002
    --------------------------------------------
      LOOP:  cpu time      2.1312: real time      2.1633

 eigenvalue-minimisations  :   384
 total energy-change (2. order) :-0.1860004E-05  (-0.8245999E-07)
 number of electron     323.9999999 magnetization 
 augmentation part      -11.6102841 magnetization 

 Free energy of the ion-electron system (eV)
  ---------------------------------------------------
  alpha Z        PSCENC =       542.72806157
  Ewald energy   TEWEN  =    -14348.17346818
  -Hartree energ DENC   =     -4163.92794242
  -exchange      EXHF   =         0.00000000
  -V(xc)+E(xc)   XCENC  =       616.73299229
  PAW double counting   =     22608.75928989   -22257.90806559
  entropy T*S    EENTRO =        -0.00000000
  eigenvalues    EBANDS =     -2128.21385936
  atomic energy  EATOM  =     18883.05693546
  Solvation  Ediel_sol  =         0.00000000
  ---------------------------------------------------
  free energy    TOTEN  =      -246.94605634 eV

  energy without entropy =     -246.94605634  energy(sigma->0) =     -246.94605634


--------------------------------------------------------------------------------------------------------




 average (electrostatic) potential at core
  the test charge radii are     0.9406  1.3020  0.9748
  (the norm of the test charge is              1.0000)
       1 -93.6308       2 -93.6305       3 -93.6306       4 -93.6308       5 -93.6306
       6 -93.6305       7 -93.6308       8 -93.6306       9 -93.6305      10 -93.6308
      11 -93.6305      12 -93.6306      13 -93.5397      14 -93.5395      15 -93.5395
      16 -93.5397      17 -93.5395      18 -93.5395      19 -93.5397      20 -93.5395
      21 -93.5395      22 -93.5397      23 -93.5395      24 -93.5395      25 -93.5821
      26 -93.5825      27 -93.5826      28 -93.5821      29 -93.5826      30 -93.5825
      31 -93.5821      32 -93.5826      33 -93.5825      34 -93.5821      35 -93.5825
      36 -93.5826      37 -36.1568      38 -36.1568      39 -36.2379      40 -36.2379
      41 -36.2379      42 -36.2379      43 -28.4436      44 -28.4441      45 -28.4441
      46 -28.4436      47 -28.4441      48 -28.4441      49 -28.4437      50 -28.4441
      51 -28.4441      52 -28.4436      53 -28.4441      54 -28.4441      55 -28.3246
      56 -28.3246      57 -28.3243      58 -28.3246      59 -28.3246      60 -28.3243
 
 
 
 E-fermi :   0.0798     XC(G=0):  -8.2183     alpha+bet : -8.3650

 Fermi energy:         0.0798300810

 k-point     1 :       0.0000    0.0000    0.0000
  band No.  band energies     occupation 
      1     -23.1587      2.00000
      2     -23.1587      2.00000
      3     -23.1586      2.00000
      4     -23.1586      2.00000
      5     -23.1584      2.00000
      6     -23.1583      2.00000
      7     -23.1583      2.00000
      8     -23.1583      2.00000
      9     -23.1444      2.00000
     10     -23.1442      2.00000
     11     -23.1439      2.00000
     12     -23.1438      2.00000
     13     -23.1188      2.00000
     14     -23.1184      2.00000
     15     -23.0946      2.00000
     16     -23.0946      2.00000
     17     -23.0945      2.00000
     18     -23.0945      2.00000
     19     -13.6662      2.00000
     20     -13.4717      2.00000
     21     -13.4125      2.00000
     22     -13.3580      2.00000
     23     -13.3181      2.00000
     24     -13.2787      2.00000
     25     -13.2787      2.00000
     26     -13.2590      2.00000
     27     -13.2588      2.00000
     28     -13.2379      2.00000
     29     -13.2333      2.00000
     30     -13.2333      2.00000
     31     -13.1772      2.00000
     32     -13.1772      2.00000
     33     -13.1666      2.00000
     34     -13.1666      2.00000
     35     -13.1353      2.00000
     36     -13.1353      2.00000
     37     -13.1290      2.00000
     38     -13.0655      2.00000
     39     -13.0601      2.00000
     40     -13.0599      2.00000
     41     -13.0505      2.00000
     42     -13.0504      2.00000
     43     -13.0466      2.00000
     44     -13.0465      2.00000
     45     -13.0464      2.00000
     46     -13.0463      2.00000
     47     -13.0381      2.00000
     48     -12.9851      2.00000
     49     -12.9753      2.00000
     50     -12.9753      2.00000
     51     -12.9294      2.00000
     52     -12.9293      2.00000
     53     -12.9277      2.00000
     54     -12.9068      2.00000
     55      -3.2156      2.00000
     56      -3.0068      2.00000
     57      -2.9139      2.00000
     58      -2.9009      2.00000
     59      -2.9008      2.00000
     60      -2.8858      2.00000
     61      -2.7990      2.00000
     62      -2.7989      2.00000
     63      -2.7895      2.00000
     64      -2.7861      2.00000
     65      -2.6687      2.00000
     66      -2.6687      2.00000
     67      -2.6563      2.00000
     68      -2.6562      2.00000
     69      -2.5720      2.00000
     70      -2.5719      2.00000
     71      -2.5282      2.00000
     72      -2.5281      2.00000
     73      -2.5230      2.00000
     74      -2.5229      2.00000
     75      -2.4732      2.00000
     76      -2.4732      2.00000
     77      -2.4356      2.00000
     78      -2.4319      2.00000
     79      -2.4319      2.00000
     80      -2.3585      2.00000
     81      -2.3378      2.00000
     82      -2.3377      2.00000
     83      -2.2729      2.00000
     84      -2.2728      2.00000
     85      -2.2057      2.00000
     86      -2.1934      2.00000
     87      -2.1414      2.00000
     88      -2.1388      2.00000
     89      -2.1387      2.00000
     90      -2.0643      2.00000
     91      -2.0514      2.00000
     92      -2.0497      2.00000
     93      -2.0496      2.00000
     94      -1.8946      2.00000
     95      -1.8579      2.00000
     96      -1.8528      2.00000
     97      -1.7810      2.00000
     98      -1.7781      2.00000
     99      -1.7780      2.00000
    100      -1.7639      2.00000
    101      -1.7636      2.00000
    102      -1.7598      2.00000
    103      -1.7301      2.00000
    104      -1.7300      2.00000
    105      -1.7257      2.00000
    106      -1.6125      2.00000
    107      -1.6124      2.00000
    108      -1.5346      2.00000
    109      -1.5037      2.00000
    110      -1.5035      2.00000
    111      -1.4881      2.00000
    112      -1.4880      2.00000
    113      -1.4814      2.00000
    114      -1.4813      2.00000
    115      -1.3888      2.00000
    116      -1.3883      2.00000
    117      -1.2953      2.00000
    118      -1.2540      2.00000
    119      -1.2539      2.00000
    120      -1.2436      2.00000
    121      -1.1300      2.00000
    122      -1.1299      2.00000
    123      -1.0747      2.00000
    124      -1.0711      2.00000
    125      -1.0616      2.00000
    126      -1.0615      2.00000
    127      -1.0375      2.00000
    128      -1.0375      2.00000
    129      -1.0235      2.00000
    130      -1.0207      2.00000
    131      -1.0207      2.00000
    132      -0.9900      2.00000
    133      -0.9899      2.00000
    134      -0.9861      2.00000
    135      -0.9860      2.00000
    136      -0.9419      2.00000
    137      -0.9178      2.00000
    138      -0.8792      2.00000
    139      -0.8770      2.00000
    140      -0.8768      2.00000
    141      -0.8157      2.00000
    142      -0.8157      2.00000
    143      -0.7830      2.00000
    144      -0.7829      2.00000
    145      -0.7684      2.00000
    146      -0.7624      2.00000
    147      -0.6880      2.00000
    148      -0.6423      2.00000
    149      -0.6422      2.00000
    150      -0.6256      2.00000
    151      -0.6256      2.00000
    152      -0.6107      2.00000
    153      -0.6106      2.00000
    154      -0.5773      2.00000
    155      -0.5463      2.00000
    156      -0.5319      2.00000
    157      -0.5318      2.00000
    158      -0.4597      2.00000
    159      -0.4596      2.00000
    160      -0.4579      2.00000
    161      -0.4579      2.00000
    162      -0.4093      2.00000
    163       4.9105      0.00000
    164       4.9243      0.00000
    165       4.9243      0.00000
    166       4.9659      0.00000
    167       4.9659      0.00000
    168       5.0215      0.00000
    169       5.0526      0.00000
    170       5.0526      0.00000
    171       5.0626      0.00000
    172       5.0627      0.00000
    173       5.1196      0.00000
    174       5.1196      0.00000
    175       5.1869      0.00000
    176       5.2475      0.00000
    177       5.2583      0.00000
    178       5.2718      0.00000
    179       5.3263      0.00000
    180       5.3263      0.00000
    181       5.6978      0.00000
    182       6.7255      0.00000
    183       6.7255      0.00000
    184       6.8563      0.00000
    185       6.9595      0.00000
    186       6.9595      0.00000
    187       6.9928      0.00000
    188       6.9929      0.00000
    189       7.0870      0.00000
    190       7.1661      0.00000
    191       7.1960      0.00000
    192       7.1961      0.00000
    193       7.2314      0.00000
    194       7.2315      0.00000
    195       7.2429      0.00000
    196       7.2429      0.00000
    197       7.2995      0.00000
    198       7.3992      0.00000
    199       7.4810      0.00000
    200       7.4963      0.00000
    201       7.7237      0.00000
    202       7.7237      0.00000
    203       7.7532      0.00000
    204       7.7533      0.00000
    205       7.9095      0.00000
    206       7.9384      0.00000
    207       7.9556      0.00000
    208       7.9557      0.00000
    209       8.1308      0.00000
    210       8.1310      0.00000
    211       8.2233      0.00000
    212       8.2234      0.00000
    213       8.3369      0.00000
    214       8.3369      0.00000
    215       8.3545      0.00000
    216       8.3761      0.00000
    217       8.5821      0.00000
    218       8.5821      0.00000
    219       8.6496      0.00000
    220       8.6908      0.00000
    221       8.6908      0.00000
    222       8.7084      0.00000
    223       8.7086      0.00000
    224       8.8802      0.00000
    225       8.8803      0.00000
    226       9.1965      0.00000
    227       9.2195      0.00000
    228       9.2197      0.00000
    229       9.2377      0.00000
    230       9.2437      0.00000
    231       9.2720      0.00000
    232       9.2721      0.00000
    233       9.2936      0.00000
    234       9.4242      0.00000
    235       9.4243      0.00000
    236       9.4894      0.00000
    237       9.4896      0.00000
    238       9.5032      0.00000
    239       9.6721      0.00000
    240       9.7775      0.00000


--------------------------------------------------------------------------------------------------------


 soft charge-density along one line, spin component           1
         0         1         2         3         4         5         6         7         8         9
 total charge-density along one line
 
 pseudopotential strength for first ion, spin component:           1
 47.757  50.124   0.002   0.010  -0.007   0.002   0.013  -0.009
 50.124  52.610   0.002   0.011  -0.008   0.002   0.013  -0.009
  0.002   0.002   9.146   0.002  -0.001  11.343   0.002  -0.001
  0.010   0.011   0.002   9.146  -0.001   0.002  11.343  -0.001
 -0.007  -0.008  -0.001  -0.001   9.147  -0.001  -0.001  11.344
  0.002   0.002  11.343   0.002  -0.001  14.083   0.002  -0.001
  0.013   0.013   0.002  11.343  -0.001   0.002  14.082  -0.002
 -0.009  -0.009  -0.001  -0.001  11.344  -0.001  -0.002  14.084
 total augmentation occupancy for first ion, spin component:           1
  2.216  -1.294  -0.261  -1.093   0.758   0.079   0.333  -0.221
 -1.294   2.195   0.265   1.081  -0.752  -0.095  -0.382   0.259
 -0.261   0.265   3.550   0.269  -0.137  -0.880  -0.160   0.084
 -1.093   1.081   0.269   3.465  -0.178  -0.160  -0.830   0.110
  0.758  -0.752  -0.137  -0.178   3.619   0.084   0.110  -0.916
  0.079  -0.095  -0.880  -0.160   0.084   0.257   0.068  -0.040
  0.333  -0.382  -0.160  -0.830   0.110   0.068   0.239  -0.055
 -0.221   0.259   0.084   0.110  -0.916  -0.040  -0.055   0.270


------------------------ aborting loop because EDIFF is reached ----------------------------------------





 total charge

# of ion       s       p       d       tot
------------------------------------------
    1        1.592   3.581   0.000   5.173
    2        1.592   3.581   0.000   5.173
    3        1.592   3.581   0.000   5.173
    4        1.592   3.581   0.000   5.173
    5        1.592   3.581   0.000   5.173
    6        1.592   3.581   0.000   5.173
    7        1.592   3.581   0.000   5.173
    8        1.592   3.581   0.000   5.173
    9        1.592   3.581   0.000   5.173
   10        1.592   3.581   0.000   5.173
   11        1.592   3.581   0.000   5.173
   12        1.592   3.581   0.000   5.173
   13        1.591   3.586   0.000   5.177
   14        1.591   3.586   0.000   5.177
   15        1.591   3.586   0.000   5.177
   16        1.591   3.586   0.000   5.177
   17        1.591   3.586   0.000   5.177
   18        1.591   3.586   0.000   5.177
   19        1.591   3.586   0.000   5.177
   20        1.591   3.586   0.000   5.177
   21        1.591   3.586   0.000   5.177
   22        1.591   3.586   0.000   5.177
   23        1.591   3.586   0.000   5.177
   24        1.591   3.586   0.000   5.177
   25        1.591   3.584   0.000   5.175
   26        1.591   3.584   0.000   5.175
   27        1.591   3.584   0.000   5.175
   28        1.591   3.584   0.000   5.175
   29        1.591   3.584   0.000   5.175
   30        1.591   3.584   0.000   5.175
   31        1.591   3.584   0.000   5.175
   32        1.591   3.584   0.000   5.175
   33        1.591   3.584   0.000   5.175
   34        1.591   3.584   0.000   5.175
   35        1.591   3.584   0.000   5.175
   36        1.591   3.584   0.000   5.175
   37        0.348   6.828   1.050   8.226
   38        0.348   6.828   1.050   8.226
   39        0.338   6.789   1.016   8.143
   40        0.338   6.789   1.016   8.143
   41        0.338   6.789   1.016   8.143
   42        0.338   6.789   1.016   8.143
   43        0.055   0.100   0.000   0.155
   44        0.055   0.100   0.000   0.154
   45        0.055   0.100   0.000   0.154
   46        0.055   0.100   0.000   0.155
   47        0.055   0.100   0.000   0.154
   48        0.055   0.100   0.000   0.154
   49        0.055   0.100   0.000   0.155
   50        0.055   0.100   0.000   0.154
   51        0.055   0.100   0.000   0.154
   52        0.055   0.100   0.000   0.155
   53        0.055   0.100   0.000   0.154
   54        0.055   0.100   0.000   0.154
   55        0.057   0.107   0.000   0.164
   56        0.057   0.107   0.000   0.164
   57        0.057   0.107   0.000   0.164
   58        0.057   0.107   0.000   0.164
   59        0.057   0.107   0.000   0.164
   60        0.057   0.107   0.000   0.164
--------------------------------------------------
tot         60.335 171.666   6.165 238.165
 
    CHARGE:  cpu time      0.1476: real time      0.1486
    FORLOC:  cpu time      0.0194: real time      0.0194
    FORNL :  cpu time      0.4449: real time      0.4463
    STRESS:  cpu time      2.9413: real time      2.9539
    FORCOR:  cpu time      0.0850: real time      0.0852
    FORHAR:  cpu time      0.0329: real time      0.0330
    MIXING:  cpu time      0.0025: real time      0.0025
    OFIELD:  cpu time      0.0000: real time      0.0000

  FORCE on cell =-STRESS in cart. coord.  units (eV):
  Direction    XX          YY          ZZ          XY          YZ          ZX
  --------------------------------------------------------------------------------------
  Alpha Z   542.72806   542.72806   542.72806
  Ewald   -4577.83317 -4577.86777 -5192.54325    -0.02997     0.06096    -0.10558
  Hartree  1493.02092  1493.00326  1177.77510    -0.01530     0.02664    -0.04613
  E(xc)   -1203.67529 -1203.67528 -1203.80288     0.00001    -0.00006     0.00011
  Local   -3217.64619 -3217.59460 -2300.33270     0.04468    -0.08733     0.15126
  n-local  2920.18058  2920.17969  2912.46650    -0.00078     0.00169    -0.00292
  augment  -563.02183  -563.02225  -563.94985    -0.00037    -0.00008     0.00013
  Kinetic  4608.17256  4608.17409  4626.73896     0.00132     0.00136    -0.00236
  Fock        0.00000     0.00000     0.00000     0.00000     0.00000     0.00000
  -------------------------------------------------------------------------------------
  Total       1.92564     1.92519    -0.92005    -0.00039     0.00318    -0.00550
  in kB       2.31008     2.30954    -1.10373    -0.00047     0.00381    -0.00660
  external pressure =        1.17 kB  Pullay stress =        0.00 kB


 VOLUME and BASIS-vectors are now :
 -----------------------------------------------------------------------------
  energy-cutoff  :      520.00
  volume of cell :     1335.55
      direct lattice vectors                 reciprocal lattice vectors
    11.235081330  0.000005465  0.000050225     0.089006896  0.051388098 -0.000000246
    -5.617535933  9.729868578 -0.000050225    -0.000000050  0.102776282  0.000000246
     0.000050679 -0.000029260 12.217332919    -0.000000366  0.000000211  0.081850925

  length of vectors
    11.235081331 11.235081331 12.217332919     0.102776282  0.102776282  0.081850925


 FORCES acting on ions
    electron-ion (+dipol)            ewald-force                    non-local-force                 convergence-correction
 -----------------------------------------------------------------------------------------------
   -.490E+02 0.184E+02 0.610E+02   0.495E+02 -.184E+02 -.617E+02   -.430E+00 -.581E-01 0.723E+00   -.701E-02 0.275E-02 0.124E-01
   0.857E+01 -.517E+02 0.610E+02   -.883E+01 0.520E+02 -.617E+02   0.265E+00 -.344E+00 0.723E+00   0.708E-03 -.773E-02 0.122E-01
   0.405E+02 0.332E+02 0.610E+02   -.406E+02 -.336E+02 -.617E+02   0.166E+00 0.402E+00 0.723E+00   0.595E-02 0.512E-02 0.125E-01
   0.490E+02 -.184E+02 -.610E+02   -.495E+02 0.184E+02 0.617E+02   0.430E+00 0.581E-01 -.723E+00   0.701E-02 -.275E-02 -.124E-01
   -.405E+02 -.332E+02 -.610E+02   0.406E+02 0.336E+02 0.617E+02   -.166E+00 -.402E+00 -.723E+00   -.595E-02 -.512E-02 -.125E-01
   -.857E+01 0.517E+02 -.610E+02   0.883E+01 -.520E+02 0.617E+02   -.265E+00 0.344E+00 -.723E+00   -.708E-03 0.773E-02 -.122E-01
   -.405E+02 0.333E+02 0.610E+02   0.406E+02 -.337E+02 -.617E+02   -.165E+00 0.401E+00 0.723E+00   -.588E-02 0.470E-02 0.124E-01
   -.856E+01 -.517E+02 0.610E+02   0.882E+01 0.520E+02 -.617E+02   -.265E+00 -.344E+00 0.723E+00   -.146E-02 -.771E-02 0.125E-01
   0.490E+02 0.184E+02 0.610E+02   -.495E+02 -.184E+02 -.617E+02   0.431E+00 -.572E-01 0.723E+00   0.705E-02 0.325E-02 0.122E-01
   0.405E+02 -.333E+02 -.610E+02   -.406E+02 0.337E+02 0.617E+02   0.165E+00 -.401E+00 -.723E+00   0.588E-02 -.470E-02 -.124E-01
   -.490E+02 -.184E+02 -.610E+02   0.495E+02 0.184E+02 0.617E+02   -.431E+00 0.572E-01 -.723E+00   -.705E-02 -.325E-02 -.122E-01
   0.856E+01 0.517E+02 -.610E+02   -.882E+01 -.520E+02 0.617E+02   0.265E+00 0.344E+00 -.723E+00   0.146E-02 0.771E-02 -.125E-01
   0.511E+02 -.396E+02 0.463E+02   -.514E+02 0.397E+02 -.466E+02   0.239E+00 -.851E-01 0.351E+00   0.633E-02 -.744E-02 0.102E-01
   0.878E+01 0.641E+02 0.463E+02   -.874E+01 -.643E+02 -.466E+02   -.464E-01 0.251E+00 0.351E+00   0.317E-02 0.998E-02 0.110E-01
   -.599E+02 -.245E+02 0.463E+02   0.601E+02 0.246E+02 -.466E+02   -.194E+00 -.165E+00 0.352E+00   -.107E-01 -.174E-02 0.112E-01
   -.511E+02 0.396E+02 -.463E+02   0.514E+02 -.397E+02 0.466E+02   -.239E+00 0.851E-01 -.351E+00   -.633E-02 0.744E-02 -.102E-01
   0.599E+02 0.244E+02 -.463E+02   -.601E+02 -.246E+02 0.466E+02   0.194E+00 0.165E+00 -.352E+00   0.107E-01 0.174E-02 -.112E-01
   -.879E+01 -.641E+02 -.463E+02   0.874E+01 0.643E+02 0.466E+02   0.464E-01 -.251E+00 -.351E+00   -.317E-02 -.998E-02 -.110E-01
   0.599E+02 -.244E+02 0.463E+02   -.601E+02 0.246E+02 -.466E+02   0.193E+00 -.165E+00 0.351E+00   0.961E-02 -.176E-02 0.102E-01
   -.876E+01 0.641E+02 0.463E+02   0.871E+01 -.643E+02 -.466E+02   0.455E-01 0.251E+00 0.352E+00   -.384E-02 0.101E-01 0.112E-01
   -.511E+02 -.396E+02 0.463E+02   0.513E+02 0.397E+02 -.466E+02   -.240E+00 -.851E-01 0.351E+00   -.706E-02 -.773E-02 0.110E-01
   -.599E+02 0.244E+02 -.463E+02   0.601E+02 -.246E+02 0.466E+02   -.193E+00 0.165E+00 -.351E+00   -.961E-02 0.176E-02 -.102E-01
   0.511E+02 0.396E+02 -.463E+02   -.513E+02 -.397E+02 0.466E+02   0.240E+00 0.851E-01 -.351E+00   0.706E-02 0.773E-02 -.110E-01
   0.876E+01 -.641E+02 -.463E+02   -.871E+01 0.643E+02 0.466E+02   -.455E-01 -.251E+00 -.352E+00   0.384E-02 -.101E-01 -.112E-01
   -.543E+02 0.213E+02 -.484E+02   0.546E+02 -.214E+02 0.485E+02   -.311E+00 0.832E-01 -.186E+00   -.529E-02 -.515E-03 -.110E-01
   0.873E+01 -.577E+02 -.484E+02   -.880E+01 0.580E+02 0.486E+02   0.833E-01 -.309E+00 -.185E+00   0.323E-02 -.307E-02 -.102E-01
   0.456E+02 0.364E+02 -.484E+02   -.458E+02 -.366E+02 0.486E+02   0.225E+00 0.226E+00 -.185E+00   0.736E-03 0.415E-02 -.978E-02
   0.543E+02 -.213E+02 0.484E+02   -.546E+02 0.214E+02 -.485E+02   0.311E+00 -.832E-01 0.186E+00   0.529E-02 0.515E-03 0.110E-01
   -.456E+02 -.364E+02 0.484E+02   0.458E+02 0.366E+02 -.486E+02   -.225E+00 -.226E+00 0.185E+00   -.736E-03 -.415E-02 0.978E-02
   -.873E+01 0.577E+02 0.484E+02   0.880E+01 -.580E+02 -.486E+02   -.833E-01 0.309E+00 0.185E+00   -.323E-02 0.307E-02 0.102E-01
   -.456E+02 0.364E+02 -.484E+02   0.458E+02 -.366E+02 0.485E+02   -.227E+00 0.227E+00 -.186E+00   -.220E-02 0.484E-02 -.110E-01
   -.872E+01 -.577E+02 -.484E+02   0.880E+01 0.580E+02 0.486E+02   -.836E-01 -.308E+00 -.185E+00   -.323E-02 -.271E-02 -.978E-02
   0.543E+02 0.213E+02 -.484E+02   -.546E+02 -.214E+02 0.486E+02   0.309E+00 0.821E-01 -.185E+00   0.427E-02 -.126E-02 -.102E-01
   0.456E+02 -.364E+02 0.484E+02   -.458E+02 0.366E+02 -.485E+02   0.227E+00 -.227E+00 0.186E+00   0.220E-02 -.484E-02 0.110E-01
   -.543E+02 -.213E+02 0.484E+02   0.546E+02 0.214E+02 -.486E+02   -.309E+00 -.821E-01 0.185E+00   -.427E-02 0.126E-02 0.102E-01
   0.872E+01 0.577E+02 0.484E+02   -.880E+01 -.580E+02 -.486E+02   0.836E-01 0.308E+00 0.185E+00   0.323E-02 0.271E-02 0.978E-02
   -.100E-05 -.161E-05 0.644E-06   -.534E-05 -.874E-05 0.491E-05   0.270E-21 0.286E-21 -.293E-22   -.337E-09 -.640E-09 0.286E-08
   -.899E-06 -.167E-05 -.170E-06   -.490E-05 -.899E-05 -.147E-05   -.262E-21 -.726E-21 -.288E-22   -.415E-09 -.594E-09 -.785E-09
   -.107E-01 0.160E-02 -.389E+01   0.963E-02 -.145E-02 0.364E+01   0.476E-03 -.176E-03 0.259E+00   0.127E-02 -.329E-03 -.548E-02
   0.107E-01 -.161E-02 0.389E+01   -.964E-02 0.141E-02 -.364E+01   -.476E-03 0.176E-03 -.259E+00   -.127E-02 0.329E-03 0.548E-02
   -.672E-02 0.843E-02 -.389E+01   0.604E-02 -.765E-02 0.364E+01   0.390E-03 -.325E-03 0.259E+00   0.921E-03 -.937E-03 -.548E-02
   0.672E-02 -.843E-02 0.389E+01   -.607E-02 0.761E-02 -.364E+01   -.390E-03 0.325E-03 -.259E+00   -.921E-03 0.937E-03 0.548E-02
   0.514E+00 -.214E+01 -.932E-01   -.352E+00 0.206E+01 -.220E+00   -.161E+00 0.832E-01 0.308E+00   -.980E-04 -.189E-03 0.267E-04
   0.160E+01 0.151E+01 -.941E-01   -.161E+01 -.133E+01 -.219E+00   0.802E-02 -.181E+00 0.308E+00   0.173E-03 0.258E-04 0.304E-04
   -.211E+01 0.627E+00 -.934E-01   0.196E+01 -.728E+00 -.219E+00   0.153E+00 0.973E-01 0.308E+00   -.822E-04 0.161E-03 0.414E-04
   -.514E+00 0.214E+01 0.932E-01   0.352E+00 -.206E+01 0.220E+00   0.161E+00 -.832E-01 -.308E+00   0.980E-04 0.189E-03 -.267E-04
   -.160E+01 -.151E+01 0.941E-01   0.161E+01 0.133E+01 0.219E+00   -.802E-02 0.181E+00 -.308E+00   -.173E-03 -.258E-04 -.304E-04
   0.211E+01 -.627E+00 0.934E-01   -.196E+01 0.728E+00 0.219E+00   -.153E+00 -.973E-01 -.308E+00   0.822E-04 -.161E-03 -.414E-04
   -.211E+01 -.622E+00 0.932E-01   0.196E+01 0.723E+00 0.220E+00   0.152E+00 -.978E-01 -.308E+00   -.114E-03 -.179E-03 -.267E-04
   0.160E+01 -.151E+01 0.934E-01   -.161E+01 0.133E+01 0.219E+00   0.798E-02 0.181E+00 -.308E+00   0.180E-03 0.907E-05 -.414E-04
   0.509E+00 0.214E+01 0.941E-01   -.347E+00 -.206E+01 0.219E+00   -.160E+00 -.834E-01 -.308E+00   -.640E-04 0.162E-03 -.304E-04
   0.211E+01 0.622E+00 -.932E-01   -.196E+01 -.723E+00 -.220E+00   -.152E+00 0.978E-01 0.308E+00   0.114E-03 0.179E-03 0.267E-04
   -.160E+01 0.151E+01 -.934E-01   0.161E+01 -.133E+01 -.219E+00   -.798E-02 -.181E+00 0.308E+00   -.180E-03 -.907E-05 0.414E-04
   -.509E+00 -.214E+01 -.941E-01   0.347E+00 0.206E+01 -.219E+00   0.160E+00 0.834E-01 0.308E+00   0.640E-04 -.162E-03 0.304E-04
   0.432E+01 0.156E-02 -.669E-03   -.429E+01 -.140E-02 0.584E-03   -.347E-01 -.166E-03 0.680E-04   0.402E-03 -.382E-05 -.291E-05
   -.216E+01 0.374E+01 0.669E-03   0.214E+01 -.371E+01 -.582E-03   0.172E-01 -.302E-01 -.680E-04   -.204E-03 0.346E-03 0.291E-05
   -.216E+01 -.374E+01 0.161E-06   0.214E+01 0.371E+01 0.103E-05   0.175E-01 0.303E-01 0.218E-17   -.191E-03 -.332E-03 0.147E-10
   -.432E+01 -.156E-02 0.669E-03   0.429E+01 0.140E-02 -.581E-03   0.347E-01 0.166E-03 -.680E-04   -.402E-03 0.382E-05 0.291E-05
   0.216E+01 -.374E+01 -.669E-03   -.214E+01 0.371E+01 0.581E-03   -.172E-01 0.302E-01 0.680E-04   0.204E-03 -.346E-03 -.291E-05
   0.216E+01 0.374E+01 -.169E-07   -.214E+01 -.371E+01 0.360E-07   -.175E-01 -.303E-01 -.218E-17   0.191E-03 0.332E-03 -.496E-10
 -----------------------------------------------------------------------------------------------
   -.331E-04 -.573E-04 -.110E-02   -.711E-14 0.551E-13 0.509E-13   0.278E-16 0.153E-15 0.333E-15   0.210E-09 0.537E-09 0.226E-08
 
 
 POSITION                                       TOTAL-FORCE (eV/Angst)
 -----------------------------------------------------------------------------------
     -3.70374      8.57117      4.74107        -0.006511     -0.002587      0.026432
      0.04659      2.23680      4.74106         0.005459     -0.005104      0.026871
      3.65713      8.65180      4.74104         0.001712      0.007255      0.026932
      9.32134      1.15867      7.47626         0.006511      0.002587     -0.026432
      1.96047      1.07805      7.47629        -0.001712     -0.007255     -0.026932
      5.57101      7.49304      7.47627        -0.005459      0.005104     -0.026871
     -3.65715      8.65181     10.84973        -0.001015      0.006932      0.026432
     -0.04654      2.23680     10.84971        -0.005427     -0.005111      0.026932
      3.70373      8.57111     10.84973         0.007150     -0.002175      0.026871
      9.27475      1.07804      1.36760         0.001015     -0.006932     -0.026432
      1.91386      1.15873      1.36761        -0.007150      0.002175     -0.026871
      5.66414      7.49305      1.36762         0.005427      0.005111     -0.026932
     -1.91940      7.49226      1.70370         0.005755     -0.010627      0.021114
      0.08885      4.32141      1.70366         0.006094      0.010546      0.021226
      1.83072      7.64601      1.70363        -0.012380      0.000331      0.021377
      7.53700      2.23758     10.51363        -0.005755      0.010627     -0.021114
      3.78687      2.08384     10.51371         0.012380     -0.000331     -0.021377
      5.52875      5.40844     10.51367        -0.006094     -0.010546     -0.021226
     -1.83062      7.64598      7.81237         0.012081      0.000330      0.021114
     -0.08870      4.32140      7.81229        -0.006477      0.010555      0.021377
      1.91955      7.49221      7.81233        -0.006086     -0.010550      0.021226
      7.44821      2.08386      4.40496        -0.012081     -0.000330     -0.021114
      3.69805      2.23763      4.40500         0.006086      0.010550     -0.021226
      5.70630      5.40844      4.40504         0.006477     -0.010555     -0.021377
      1.83810      5.28844      4.65840        -0.004923     -0.007402     -0.012886
      0.11858      8.67730      4.65829         0.008899      0.000362     -0.012272
     -1.95644      5.49386      4.65831        -0.004916      0.007618     -0.012249
      3.77950      4.44141      7.55893         0.004923      0.007402      0.012886
      7.57404      4.23599      7.55902         0.004916     -0.007618      0.012249
      5.49902      1.05255      7.55904        -0.008899     -0.000362      0.012272
      1.95670      5.49380     10.76707         0.003949      0.007965     -0.012886
     -0.11847      8.67726     10.76698        -0.009056      0.000449     -0.012249
     -1.83790      5.28852     10.76696         0.004136     -0.007888     -0.012272
      3.66090      4.23604      1.45026        -0.003949     -0.007965      0.012886
      7.45549      4.44133      1.45037        -0.004136      0.007888      0.012272
      5.73607      1.05259      1.45035         0.009056     -0.000449      0.012249
      0.00000      0.00000     -0.00000        -0.000000      0.000000     -0.000000
      0.00003     -0.00001      6.10867        -0.000000      0.000000     -0.000000
      0.00001      6.48656      3.18795         0.000722     -0.000329      0.000851
      5.61759      3.24329      9.02938        -0.000722      0.000329     -0.000851
      0.00005      6.48657      9.29662         0.000646     -0.000461      0.000851
      5.61755      3.24327      2.92071        -0.000646      0.000461     -0.000851
      2.05935      3.22561     11.85930         0.001687      0.002974     -0.004399
      7.41204      0.17053     11.85936        -0.003331      0.000002     -0.004517
      7.38139      6.33366     11.85934         0.001602     -0.002960     -0.004491
      3.55825      6.50423      0.35803        -0.001687     -0.002974      0.004399
     -1.79444      9.55932      0.35797         0.003331     -0.000002      0.004517
     -1.76379      3.39619      0.35800        -0.001602      0.002960      0.004491
      1.76387      3.39621      6.46670         0.001732      0.002948      0.004399
      1.79449      9.55925      6.46666        -0.003365     -0.000093      0.004491
     -3.55826      6.50423      6.46664         0.001667     -0.002884      0.004517
      3.85373      6.33363      5.75063        -0.001732     -0.002948     -0.004399
      3.82311      0.17059      5.75067         0.003365      0.000093     -0.004491
      9.17586      3.22561      5.75069        -0.001667      0.002884     -0.004517
      3.63729      0.00002      9.16302        -0.000378     -0.000006     -0.000022
     -1.81855      3.14996      9.16297         0.000183     -0.000330      0.000022
      3.79892      6.57983      9.16300         0.000172      0.000298      0.000000
      1.98030      9.72982      3.05431         0.000378      0.000006      0.000022
      7.43615      6.57989      3.05436        -0.000183      0.000330     -0.000022
      1.81868      3.15001      3.05433        -0.000172     -0.000298     -0.000000
 -----------------------------------------------------------------------------------
    total drift:                               -0.000033     -0.000057     -0.001098


--------------------------------------------------------------------------------------------------------



  FREE ENERGIE OF THE ION-ELECTRON SYSTEM (eV)
  ---------------------------------------------------
  free  energy   TOTEN  =      -246.94605634 eV

  energy  without entropy=     -246.94605634  energy(sigma->0) =     -246.94605634
 
 d Force = 0.1810205E-02[ 0.140E-02, 0.222E-02]  d Energy = 0.1822192E-02-0.120E-04
 d Force =-0.4386256E+01[-0.440E+01,-0.438E+01]  d Ewald  =-0.4386253E+01-0.332E-05


--------------------------------------------------------------------------------------------------------


    POTLOK:  cpu time      0.0857: real time      0.0860


--------------------------------------------------------------------------------------------------------


 Steepest descent step on ions:
 trial-energy change:   -0.001822  1 .order   -0.001810   -0.002221   -0.001400
  (g-gl).g = 0.222E-02      g.g   = 0.222E-02  gl.gl    = 0.000E+00
 g(Force)  = 0.222E-02   g(Stress)= 0.000E+00 ortho     = 0.000E+00
 gamma     =   0.00000
 trial     =   1.00000
 opt step  =   2.70513  (harmonic =   2.70513) maximal distance =0.00505947
 next E    =  -246.947238   (d E  =  -0.00300)


--------------------------------------------------------------------------------------------------------


    WAVPRE:  cpu time      0.0316: real time      0.0677
    FEWALD:  cpu time      0.0009: real time      0.0009
    ORTHCH:  cpu time      0.3538: real time      0.3556
     LOOP+:  cpu time     24.4762: real time     24.8899


--------------------------------------- Ionic step        3  -------------------------------------------




--------------------------------------- Iteration      3(   1)  ---------------------------------------


    POTLOK:  cpu time      0.0767: real time      0.0840
    SETDIJ:  cpu time      0.0069: real time      0.0070
     EDDAV:  cpu time      2.7449: real time      2.7562
       DOS:  cpu time      0.0003: real time      0.0003
    CHARGE:  cpu time      0.1526: real time      0.1531
    MIXING:  cpu time      0.0021: real time      0.0021
    --------------------------------------------
      LOOP:  cpu time      2.9836: real time      3.0028

 eigenvalue-minimisations  :   576
 total energy-change (2. order) : 0.4022704E-02  (-0.5450417E-01)
 number of electron     324.0000003 magnetization 
 augmentation part      -11.6072120 magnetization 

 Broyden mixing:
  rms(total) = 0.44350E-01    rms(broyden)= 0.44349E-01
  rms(prec ) = 0.45602E-01
  weight for this iteration     100.00

 Free energy of the ion-electron system (eV)
  ---------------------------------------------------
  alpha Z        PSCENC =       542.72806157
  Ewald energy   TEWEN  =    -14340.64704317
  -Hartree energ DENC   =     -4170.81535854
  -exchange      EXHF   =         0.00000000
  -V(xc)+E(xc)   XCENC  =       616.80845241
  PAW double counting   =     22609.31004208   -22258.45952398
  entropy T*S    EENTRO =        -0.00000000
  eigenvalues    EBANDS =     -2128.92359761
  atomic energy  EATOM  =     18883.05693546
  Solvation  Ediel_sol  =         0.00000000
  ---------------------------------------------------
  free energy    TOTEN  =      -246.94203178 eV

  energy without entropy =     -246.94203178  energy(sigma->0) =     -246.94203178


--------------------------------------------------------------------------------------------------------




--------------------------------------- Iteration      3(   2)  ---------------------------------------


    POTLOK:  cpu time      0.1055: real time      0.1265
    SETDIJ:  cpu time      0.0070: real time      0.0070
     EDDAV:  cpu time      3.8814: real time      3.8972
       DOS:  cpu time      0.0002: real time      0.0001
    CHARGE:  cpu time      0.1510: real time      0.1514
    MIXING:  cpu time      0.0020: real time      0.0020
    --------------------------------------------
      LOOP:  cpu time      4.1470: real time      4.1843

 eigenvalue-minimisations  :   864
 total energy-change (2. order) :-0.5623806E-02  (-0.6039905E-02)
 number of electron     324.0000003 magnetization 
 augmentation part      -11.6073638 magnetization 

 Broyden mixing:
  rms(total) = 0.35559E-01    rms(broyden)= 0.35556E-01
  rms(prec ) = 0.36377E-01
  weight for this iteration     100.00

 eigenvalues of (default mixing * dielectric matrix)
  average eigenvalue GAMMA=   0.7226
  0.7226

 Free energy of the ion-electron system (eV)
  ---------------------------------------------------
  alpha Z        PSCENC =       542.72806157
  Ewald energy   TEWEN  =    -14340.64704317
  -Hartree energ DENC   =     -4170.97480378
  -exchange      EXHF   =         0.00000000
  -V(xc)+E(xc)   XCENC  =       616.80514143
  PAW double counting   =     22617.64395639   -22266.78126900
  entropy T*S    EENTRO =        -0.00000000
  eigenvalues    EBANDS =     -2128.77863449
  atomic energy  EATOM  =     18883.05693546
  Solvation  Ediel_sol  =         0.00000000
  ---------------------------------------------------
  free energy    TOTEN  =      -246.94765559 eV

  energy without entropy =     -246.94765559  energy(sigma->0) =     -246.94765559


--------------------------------------------------------------------------------------------------------




--------------------------------------- Iteration      3(   3)  ---------------------------------------


    POTLOK:  cpu time      0.0852: real time      0.1138
    SETDIJ:  cpu time      0.0071: real time      0.0071
     EDDAV:  cpu time      3.4921: real time      3.5048
       DOS:  cpu time      0.0002: real time      0.0002
    CHARGE:  cpu time      0.1511: real time      0.1518
    MIXING:  cpu time      0.0023: real time      0.0023
    --------------------------------------------
      LOOP:  cpu time      3.7380: real time      3.7800

 eigenvalue-minimisations  :   768
 total energy-change (2. order) : 0.1760464E-03  (-0.4337974E-04)
 number of electron     324.0000003 magnetization 
 augmentation part      -11.6083113 magnetization 

 Broyden mixing:
  rms(total) = 0.28117E-01    rms(broyden)= 0.28117E-01
  rms(prec ) = 0.28544E-01
  weight for this iteration     100.00

 eigenvalues of (default mixing * dielectric matrix)
  average eigenvalue GAMMA=   1.7920
  1.1785  2.4054

 Free energy of the ion-electron system (eV)
  ---------------------------------------------------
  alpha Z        PSCENC =       542.72806157
  Ewald energy   TEWEN  =    -14340.64704317
  -Hartree energ DENC   =     -4171.14376967
  -exchange      EXHF   =         0.00000000
  -V(xc)+E(xc)   XCENC  =       616.80547144
  PAW double counting   =     22621.55377493   -22270.69007320
  entropy T*S    EENTRO =        -0.00000000
  eigenvalues    EBANDS =     -2128.61083690
  atomic energy  EATOM  =     18883.05693546
  Solvation  Ediel_sol  =         0.00000000
  ---------------------------------------------------
  free energy    TOTEN  =      -246.94747954 eV

  energy without entropy =     -246.94747954  energy(sigma->0) =     -246.94747954


--------------------------------------------------------------------------------------------------------




--------------------------------------- Iteration      3(   4)  ---------------------------------------


    POTLOK:  cpu time      0.0795: real time      0.0966
    SETDIJ:  cpu time      0.0069: real time      0.0069
     EDDAV:  cpu time      3.6788: real time      3.6936
       DOS:  cpu time      0.0002: real time      0.0002
    CHARGE:  cpu time      0.1504: real time      0.1513
    MIXING:  cpu time      0.0022: real time      0.0022
    --------------------------------------------
      LOOP:  cpu time      3.9179: real time      3.9507

 eigenvalue-minimisations  :   816
 total energy-change (2. order) : 0.1242194E-03  (-0.6803189E-04)
 number of electron     324.0000003 magnetization 
 augmentation part      -11.6095659 magnetization 

 Broyden mixing:
  rms(total) = 0.11220E-01    rms(broyden)= 0.11220E-01
  rms(prec ) = 0.11262E-01
  weight for this iteration     100.00

 eigenvalues of (default mixing * dielectric matrix)
  average eigenvalue GAMMA=   2.2712
  4.4249  1.0108  1.3780

 Free energy of the ion-electron system (eV)
  ---------------------------------------------------
  alpha Z        PSCENC =       542.72806157
  Ewald energy   TEWEN  =    -14340.64704317
  -Hartree energ DENC   =     -4171.48994562
  -exchange      EXHF   =         0.00000000
  -V(xc)+E(xc)   XCENC  =       616.81054903
  PAW double counting   =     22631.35566787   -22280.49741146
  entropy T*S    EENTRO =        -0.00000000
  eigenvalues    EBANDS =     -2128.26416901
  atomic energy  EATOM  =     18883.05693546
  Solvation  Ediel_sol  =         0.00000000
  ---------------------------------------------------
  free energy    TOTEN  =      -246.94735532 eV

  energy without entropy =     -246.94735532  energy(sigma->0) =     -246.94735532


--------------------------------------------------------------------------------------------------------




--------------------------------------- Iteration      3(   5)  ---------------------------------------


    POTLOK:  cpu time      0.1106: real time      0.1111
    SETDIJ:  cpu time      0.0069: real time      0.0069
     EDDAV:  cpu time      3.3074: real time      3.3189
       DOS:  cpu time      0.0001: real time      0.0001
    CHARGE:  cpu time      0.1514: real time      0.1518
    MIXING:  cpu time      0.0022: real time      0.0022
    --------------------------------------------
      LOOP:  cpu time      3.5787: real time      3.5911

 eigenvalue-minimisations  :   720
 total energy-change (2. order) :-0.2550194E-04  (-0.1566649E-04)
 number of electron     324.0000003 magnetization 
 augmentation part      -11.6093221 magnetization 

 Broyden mixing:
  rms(total) = 0.28225E-02    rms(broyden)= 0.28225E-02
  rms(prec ) = 0.31687E-02
  weight for this iteration     100.00

 eigenvalues of (default mixing * dielectric matrix)
  average eigenvalue GAMMA=   2.0752
  4.7863  1.2989  1.2989  0.9167

 Free energy of the ion-electron system (eV)
  ---------------------------------------------------
  alpha Z        PSCENC =       542.72806157
  Ewald energy   TEWEN  =    -14340.64704317
  -Hartree energ DENC   =     -4171.53983737
  -exchange      EXHF   =         0.00000000
  -V(xc)+E(xc)   XCENC  =       616.81418909
  PAW double counting   =     22638.29100827   -22287.44307904
  entropy T*S    EENTRO =        -0.00000000
  eigenvalues    EBANDS =     -2128.20761565
  atomic energy  EATOM  =     18883.05693546
  Solvation  Ediel_sol  =         0.00000000
  ---------------------------------------------------
  free energy    TOTEN  =      -246.94738082 eV

  energy without entropy =     -246.94738082  energy(sigma->0) =     -246.94738082


--------------------------------------------------------------------------------------------------------




--------------------------------------- Iteration      3(   6)  ---------------------------------------


    POTLOK:  cpu time      0.0772: real time      0.1264
    SETDIJ:  cpu time      0.0072: real time      0.0072
     EDDAV:  cpu time      2.0353: real time      2.0428
       DOS:  cpu time      0.0001: real time      0.0001
    --------------------------------------------
      LOOP:  cpu time      2.1198: real time      2.1765

 eigenvalue-minimisations  :   384
 total energy-change (2. order) : 0.6716971E-05  (-0.6747058E-06)
 number of electron     324.0000003 magnetization 
 augmentation part      -11.6093221 magnetization 

 Free energy of the ion-electron system (eV)
  ---------------------------------------------------
  alpha Z        PSCENC =       542.72806157
  Ewald energy   TEWEN  =    -14340.64704317
  -Hartree energ DENC   =     -4171.51573928
  -exchange      EXHF   =         0.00000000
  -V(xc)+E(xc)   XCENC  =       616.81313873
  PAW double counting   =     22639.56017731   -22288.71242172
  entropy T*S    EENTRO =        -0.00000000
  eigenvalues    EBANDS =     -2128.23048300
  atomic energy  EATOM  =     18883.05693546
  Solvation  Ediel_sol  =         0.00000000
  ---------------------------------------------------
  free energy    TOTEN  =      -246.94737411 eV

  energy without entropy =     -246.94737411  energy(sigma->0) =     -246.94737411


--------------------------------------------------------------------------------------------------------




 average (electrostatic) potential at core
  the test charge radii are     0.9406  1.3020  0.9748
  (the norm of the test charge is              1.0000)
       1 -93.6320       2 -93.6323       3 -93.6322       4 -93.6320       5 -93.6322
       6 -93.6323       7 -93.6320       8 -93.6322       9 -93.6323      10 -93.6320
      11 -93.6323      12 -93.6322      13 -93.5408      14 -93.5425      15 -93.5425
      16 -93.5408      17 -93.5425      18 -93.5425      19 -93.5408      20 -93.5425
      21 -93.5425      22 -93.5408      23 -93.5425      24 -93.5425      25 -93.5825
      26 -93.5807      27 -93.5806      28 -93.5825      29 -93.5806      30 -93.5807
      31 -93.5825      32 -93.5806      33 -93.5807      34 -93.5825      35 -93.5807
      36 -93.5806      37 -36.1375      38 -36.1375      39 -36.2231      40 -36.2232
      41 -36.2232      42 -36.2231      43 -28.4492      44 -28.4479      45 -28.4482
      46 -28.4492      47 -28.4479      48 -28.4482      49 -28.4492      50 -28.4482
      51 -28.4479      52 -28.4492      53 -28.4482      54 -28.4479      55 -28.3250
      56 -28.3250      57 -28.3260      58 -28.3250      59 -28.3250      60 -28.3260
 
 
 
 E-fermi :   0.0794     XC(G=0):  -8.2172     alpha+bet : -8.3650

 Fermi energy:         0.0793868677

 k-point     1 :       0.0000    0.0000    0.0000
  band No.  band energies     occupation 
      1     -23.1472      2.00000
      2     -23.1472      2.00000
      3     -23.1471      2.00000
      4     -23.1471      2.00000
      5     -23.1468      2.00000
      6     -23.1468      2.00000
      7     -23.1468      2.00000
      8     -23.1467      2.00000
      9     -23.1331      2.00000
     10     -23.1329      2.00000
     11     -23.1326      2.00000
     12     -23.1325      2.00000
     13     -23.1043      2.00000
     14     -23.1040      2.00000
     15     -23.0802      2.00000
     16     -23.0802      2.00000
     17     -23.0801      2.00000
     18     -23.0801      2.00000
     19     -13.6688      2.00000
     20     -13.4761      2.00000
     21     -13.4150      2.00000
     22     -13.3617      2.00000
     23     -13.3205      2.00000
     24     -13.2797      2.00000
     25     -13.2792      2.00000
     26     -13.2607      2.00000
     27     -13.2601      2.00000
     28     -13.2401      2.00000
     29     -13.2344      2.00000
     30     -13.2341      2.00000
     31     -13.1788      2.00000
     32     -13.1785      2.00000
     33     -13.1678      2.00000
     34     -13.1678      2.00000
     35     -13.1368      2.00000
     36     -13.1364      2.00000
     37     -13.1302      2.00000
     38     -13.0664      2.00000
     39     -13.0614      2.00000
     40     -13.0609      2.00000
     41     -13.0511      2.00000
     42     -13.0505      2.00000
     43     -13.0499      2.00000
     44     -13.0489      2.00000
     45     -13.0489      2.00000
     46     -13.0484      2.00000
     47     -13.0391      2.00000
     48     -12.9846      2.00000
     49     -12.9765      2.00000
     50     -12.9762      2.00000
     51     -12.9306      2.00000
     52     -12.9305      2.00000
     53     -12.9280      2.00000
     54     -12.9076      2.00000
     55      -3.2159      2.00000
     56      -3.0067      2.00000
     57      -2.9184      2.00000
     58      -2.9036      2.00000
     59      -2.9031      2.00000
     60      -2.8892      2.00000
     61      -2.8026      2.00000
     62      -2.8021      2.00000
     63      -2.7921      2.00000
     64      -2.7894      2.00000
     65      -2.6721      2.00000
     66      -2.6717      2.00000
     67      -2.6582      2.00000
     68      -2.6578      2.00000
     69      -2.5731      2.00000
     70      -2.5727      2.00000
     71      -2.5298      2.00000
     72      -2.5297      2.00000
     73      -2.5246      2.00000
     74      -2.5241      2.00000
     75      -2.4751      2.00000
     76      -2.4751      2.00000
     77      -2.4361      2.00000
     78      -2.4351      2.00000
     79      -2.4351      2.00000
     80      -2.3614      2.00000
     81      -2.3404      2.00000
     82      -2.3402      2.00000
     83      -2.2735      2.00000
     84      -2.2733      2.00000
     85      -2.2083      2.00000
     86      -2.1940      2.00000
     87      -2.1437      2.00000
     88      -2.1416      2.00000
     89      -2.1409      2.00000
     90      -2.0657      2.00000
     91      -2.0514      2.00000
     92      -2.0511      2.00000
     93      -2.0508      2.00000
     94      -1.8965      2.00000
     95      -1.8572      2.00000
     96      -1.8545      2.00000
     97      -1.7817      2.00000
     98      -1.7812      2.00000
     99      -1.7811      2.00000
    100      -1.7660      2.00000
    101      -1.7653      2.00000
    102      -1.7594      2.00000
    103      -1.7297      2.00000
    104      -1.7295      2.00000
    105      -1.7286      2.00000
    106      -1.6130      2.00000
    107      -1.6129      2.00000
    108      -1.5356      2.00000
    109      -1.5094      2.00000
    110      -1.5088      2.00000
    111      -1.4900      2.00000
    112      -1.4897      2.00000
    113      -1.4848      2.00000
    114      -1.4844      2.00000
    115      -1.3920      2.00000
    116      -1.3908      2.00000
    117      -1.2978      2.00000
    118      -1.2534      2.00000
    119      -1.2526      2.00000
    120      -1.2440      2.00000
    121      -1.1307      2.00000
    122      -1.1303      2.00000
    123      -1.0726      2.00000
    124      -1.0723      2.00000
    125      -1.0618      2.00000
    126      -1.0617      2.00000
    127      -1.0385      2.00000
    128      -1.0384      2.00000
    129      -1.0260      2.00000
    130      -1.0233      2.00000
    131      -1.0232      2.00000
    132      -0.9908      2.00000
    133      -0.9906      2.00000
    134      -0.9887      2.00000
    135      -0.9886      2.00000
    136      -0.9439      2.00000
    137      -0.9185      2.00000
    138      -0.8797      2.00000
    139      -0.8793      2.00000
    140      -0.8785      2.00000
    141      -0.8168      2.00000
    142      -0.8166      2.00000
    143      -0.7857      2.00000
    144      -0.7857      2.00000
    145      -0.7689      2.00000
    146      -0.7632      2.00000
    147      -0.6902      2.00000
    148      -0.6434      2.00000
    149      -0.6430      2.00000
    150      -0.6273      2.00000
    151      -0.6271      2.00000
    152      -0.6118      2.00000
    153      -0.6117      2.00000
    154      -0.5782      2.00000
    155      -0.5471      2.00000
    156      -0.5343      2.00000
    157      -0.5337      2.00000
    158      -0.4611      2.00000
    159      -0.4608      2.00000
    160      -0.4597      2.00000
    161      -0.4593      2.00000
    162      -0.4105      2.00000
    163       4.9165      0.00000
    164       4.9310      0.00000
    165       4.9311      0.00000
    166       4.9732      0.00000
    167       4.9732      0.00000
    168       5.0284      0.00000
    169       5.0612      0.00000
    170       5.0612      0.00000
    171       5.0708      0.00000
    172       5.0708      0.00000
    173       5.1275      0.00000
    174       5.1276      0.00000
    175       5.1944      0.00000
    176       5.2537      0.00000
    177       5.2660      0.00000
    178       5.2785      0.00000
    179       5.3356      0.00000
    180       5.3357      0.00000
    181       5.7033      0.00000
    182       6.7330      0.00000
    183       6.7331      0.00000
    184       6.8601      0.00000
    185       6.9686      0.00000
    186       6.9688      0.00000
    187       7.0014      0.00000
    188       7.0014      0.00000
    189       7.0935      0.00000
    190       7.1667      0.00000
    191       7.2085      0.00000
    192       7.2086      0.00000
    193       7.2417      0.00000
    194       7.2418      0.00000
    195       7.2584      0.00000
    196       7.2586      0.00000
    197       7.3005      0.00000
    198       7.4018      0.00000
    199       7.4908      0.00000
    200       7.4938      0.00000
    201       7.7264      0.00000
    202       7.7264      0.00000
    203       7.7617      0.00000
    204       7.7618      0.00000
    205       7.9159      0.00000
    206       7.9360      0.00000
    207       7.9613      0.00000
    208       7.9620      0.00000
    209       8.1314      0.00000
    210       8.1318      0.00000
    211       8.2278      0.00000
    212       8.2282      0.00000
    213       8.3389      0.00000
    214       8.3391      0.00000
    215       8.3590      0.00000
    216       8.3831      0.00000
    217       8.5799      0.00000
    218       8.5799      0.00000
    219       8.6497      0.00000
    220       8.6904      0.00000
    221       8.6907      0.00000
    222       8.7122      0.00000
    223       8.7128      0.00000
    224       8.8798      0.00000
    225       8.8802      0.00000
    226       9.1992      0.00000
    227       9.2190      0.00000
    228       9.2193      0.00000
    229       9.2355      0.00000
    230       9.2445      0.00000
    231       9.2707      0.00000
    232       9.2713      0.00000
    233       9.2880      0.00000
    234       9.4246      0.00000
    235       9.4246      0.00000
    236       9.4853      0.00000
    237       9.4854      0.00000
    238       9.4987      0.00000
    239       9.6575      0.00000
    240       9.7720      0.00000


--------------------------------------------------------------------------------------------------------


 soft charge-density along one line, spin component           1
         0         1         2         3         4         5         6         7         8         9
 total charge-density along one line
 
 pseudopotential strength for first ion, spin component:           1
 47.758  50.124   0.002   0.010  -0.007   0.002   0.013  -0.009
 50.124  52.611   0.002   0.011  -0.008   0.002   0.013  -0.009
  0.002   0.002   9.146   0.002  -0.001  11.343   0.002  -0.001
  0.010   0.011   0.002   9.146  -0.001   0.002  11.343  -0.001
 -0.007  -0.008  -0.001  -0.001   9.147  -0.001  -0.001  11.344
  0.002   0.002  11.343   0.002  -0.001  14.083   0.002  -0.001
  0.013   0.013   0.002  11.343  -0.001   0.002  14.083  -0.002
 -0.009  -0.009  -0.001  -0.001  11.344  -0.001  -0.002  14.084
 total augmentation occupancy for first ion, spin component:           1
  2.218  -1.298  -0.265  -1.093   0.759   0.080   0.335  -0.223
 -1.298   2.200   0.268   1.081  -0.754  -0.097  -0.384   0.261
 -0.265   0.268   3.552   0.268  -0.138  -0.881  -0.159   0.085
 -1.093   1.081   0.268   3.466  -0.179  -0.159  -0.831   0.110
  0.759  -0.754  -0.138  -0.179   3.623   0.085   0.110  -0.919
  0.080  -0.097  -0.881  -0.159   0.085   0.257   0.068  -0.041
  0.335  -0.384  -0.159  -0.831   0.110   0.068   0.239  -0.055
 -0.223   0.261   0.085   0.110  -0.919  -0.041  -0.055   0.271


------------------------ aborting loop because EDIFF is reached ----------------------------------------





 total charge

# of ion       s       p       d       tot
------------------------------------------
    1        1.592   3.581   0.000   5.174
    2        1.592   3.581   0.000   5.174
    3        1.592   3.581   0.000   5.174
    4        1.592   3.581   0.000   5.174
    5        1.592   3.581   0.000   5.174
    6        1.592   3.581   0.000   5.174
    7        1.592   3.581   0.000   5.174
    8        1.592   3.581   0.000   5.174
    9        1.592   3.581   0.000   5.174
   10        1.592   3.581   0.000   5.174
   11        1.592   3.581   0.000   5.174
   12        1.592   3.581   0.000   5.174
   13        1.591   3.586   0.000   5.177
   14        1.591   3.586   0.000   5.178
   15        1.591   3.586   0.000   5.178
   16        1.591   3.586   0.000   5.177
   17        1.591   3.586   0.000   5.178
   18        1.591   3.586   0.000   5.178
   19        1.591   3.586   0.000   5.177
   20        1.591   3.586   0.000   5.178
   21        1.591   3.586   0.000   5.178
   22        1.591   3.586   0.000   5.177
   23        1.591   3.586   0.000   5.178
   24        1.591   3.586   0.000   5.178
   25        1.591   3.585   0.000   5.175
   26        1.591   3.585   0.000   5.175
   27        1.591   3.585   0.000   5.175
   28        1.591   3.585   0.000   5.175
   29        1.591   3.585   0.000   5.175
   30        1.591   3.585   0.000   5.175
   31        1.591   3.585   0.000   5.175
   32        1.591   3.585   0.000   5.175
   33        1.591   3.585   0.000   5.175
   34        1.591   3.585   0.000   5.175
   35        1.591   3.585   0.000   5.175
   36        1.591   3.585   0.000   5.175
   37        0.349   6.834   1.056   8.239
   38        0.349   6.834   1.056   8.239
   39        0.339   6.793   1.020   8.152
   40        0.339   6.793   1.020   8.152
   41        0.339   6.793   1.020   8.152
   42        0.339   6.793   1.020   8.152
   43        0.055   0.099   0.000   0.154
   44        0.055   0.100   0.000   0.154
   45        0.055   0.100   0.000   0.154
   46        0.055   0.099   0.000   0.154
   47        0.055   0.100   0.000   0.154
   48        0.055   0.100   0.000   0.154
   49        0.055   0.099   0.000   0.154
   50        0.055   0.100   0.000   0.154
   51        0.055   0.100   0.000   0.154
   52        0.055   0.099   0.000   0.154
   53        0.055   0.100   0.000   0.154
   54        0.055   0.100   0.000   0.154
   55        0.057   0.107   0.000   0.164
   56        0.057   0.107   0.000   0.164
   57        0.057   0.107   0.000   0.164
   58        0.057   0.107   0.000   0.164
   59        0.057   0.107   0.000   0.164
   60        0.057   0.107   0.000   0.164
--------------------------------------------------
tot         60.341 171.702   6.192 238.236
 
    CHARGE:  cpu time      0.1479: real time      0.1488
    FORLOC:  cpu time      0.0197: real time      0.0198
    FORNL :  cpu time      0.4458: real time      0.4471
    STRESS:  cpu time      2.9411: real time      2.9531
    FORCOR:  cpu time      0.0851: real time      0.0853
    FORHAR:  cpu time      0.0329: real time      0.0330
    MIXING:  cpu time      0.0025: real time      0.0025
    OFIELD:  cpu time      0.0000: real time      0.0000

  FORCE on cell =-STRESS in cart. coord.  units (eV):
  Direction    XX          YY          ZZ          XY          YZ          ZX
  --------------------------------------------------------------------------------------
  Alpha Z   542.72806   542.72806   542.72806
  Ewald   -4572.58536 -4572.62348 -5195.50892    -0.03301     0.00142    -0.00247
  Hartree  1497.15198  1497.12578  1177.08848    -0.02269    -0.00131     0.00226
  E(xc)   -1203.78021 -1203.78026 -1203.91004    -0.00004    -0.00003     0.00004
  Local   -3226.96546 -3226.90145 -2296.76024     0.05543    -0.00121     0.00209
  n-local  2920.30106  2920.30118  2912.50597     0.00011     0.00048    -0.00085
  augment  -563.04836  -563.04880  -564.00368    -0.00038     0.00004    -0.00007
  Kinetic  4608.53390  4608.53518  4627.46837     0.00111     0.00086    -0.00147
  Fock        0.00000     0.00000     0.00000     0.00000     0.00000     0.00000
  -------------------------------------------------------------------------------------
  Total       2.33559     2.33621    -0.39200     0.00053     0.00026    -0.00046
  in kB       2.80187     2.80261    -0.47026     0.00064     0.00032    -0.00055
  external pressure =        1.71 kB  Pullay stress =        0.00 kB


 VOLUME and BASIS-vectors are now :
 -----------------------------------------------------------------------------
  energy-cutoff  :      520.00
  volume of cell :     1335.55
      direct lattice vectors                 reciprocal lattice vectors
    11.235081330  0.000005465  0.000050225     0.089006896  0.051388098 -0.000000246
    -5.617535933  9.729868578 -0.000050225    -0.000000050  0.102776282  0.000000246
     0.000050679 -0.000029260 12.217332919    -0.000000366  0.000000211  0.081850925

  length of vectors
    11.235081331 11.235081331 12.217332919     0.102776282  0.102776282  0.081850925


 FORCES acting on ions
    electron-ion (+dipol)            ewald-force                    non-local-force                 convergence-correction
 -----------------------------------------------------------------------------------------------
   -.495E+02 0.187E+02 0.614E+02   0.500E+02 -.187E+02 -.621E+02   -.408E+00 -.684E-01 0.702E+00   -.667E-02 0.212E-02 0.167E-01
   0.855E+01 -.522E+02 0.614E+02   -.880E+01 0.526E+02 -.621E+02   0.264E+00 -.318E+00 0.702E+00   0.149E-02 -.706E-02 0.166E-01
   0.410E+02 0.335E+02 0.614E+02   -.411E+02 -.339E+02 -.621E+02   0.145E+00 0.387E+00 0.702E+00   0.522E-02 0.524E-02 0.172E-01
   0.495E+02 -.187E+02 -.614E+02   -.500E+02 0.187E+02 0.621E+02   0.408E+00 0.684E-01 -.702E+00   0.667E-02 -.212E-02 -.167E-01
   -.410E+02 -.335E+02 -.614E+02   0.411E+02 0.339E+02 0.621E+02   -.145E+00 -.387E+00 -.702E+00   -.522E-02 -.524E-02 -.172E-01
   -.855E+01 0.522E+02 -.614E+02   0.880E+01 -.526E+02 0.621E+02   -.264E+00 0.318E+00 -.702E+00   -.149E-02 0.706E-02 -.166E-01
   -.410E+02 0.335E+02 0.614E+02   0.411E+02 -.339E+02 -.621E+02   -.145E+00 0.387E+00 0.702E+00   -.518E-02 0.472E-02 0.167E-01
   -.854E+01 -.522E+02 0.614E+02   0.880E+01 0.526E+02 -.621E+02   -.263E+00 -.318E+00 0.702E+00   -.193E-02 -.714E-02 0.172E-01
   0.495E+02 0.187E+02 0.614E+02   -.499E+02 -.187E+02 -.621E+02   0.407E+00 -.694E-01 0.702E+00   0.685E-02 0.224E-02 0.166E-01
   0.410E+02 -.335E+02 -.614E+02   -.411E+02 0.339E+02 0.621E+02   0.145E+00 -.387E+00 -.702E+00   0.518E-02 -.472E-02 -.167E-01
   -.495E+02 -.187E+02 -.614E+02   0.499E+02 0.187E+02 0.621E+02   -.407E+00 0.694E-01 -.702E+00   -.685E-02 -.224E-02 -.166E-01
   0.854E+01 0.522E+02 -.614E+02   -.880E+01 -.526E+02 0.621E+02   0.263E+00 0.318E+00 -.702E+00   0.193E-02 0.714E-02 -.172E-01
   0.515E+02 -.399E+02 0.467E+02   -.518E+02 0.400E+02 -.470E+02   0.223E+00 -.733E-01 0.336E+00   0.605E-02 -.948E-02 0.129E-01
   0.884E+01 0.646E+02 0.467E+02   -.879E+01 -.649E+02 -.470E+02   -.468E-01 0.228E+00 0.335E+00   0.502E-02 0.109E-01 0.136E-01
   -.604E+02 -.247E+02 0.467E+02   0.606E+02 0.249E+02 -.470E+02   -.173E+00 -.156E+00 0.335E+00   -.124E-01 -.866E-03 0.139E-01
   -.515E+02 0.399E+02 -.467E+02   0.518E+02 -.400E+02 0.470E+02   -.223E+00 0.733E-01 -.336E+00   -.605E-02 0.948E-02 -.129E-01
   0.604E+02 0.247E+02 -.467E+02   -.606E+02 -.249E+02 0.470E+02   0.173E+00 0.156E+00 -.335E+00   0.124E-01 0.866E-03 -.139E-01
   -.884E+01 -.646E+02 -.467E+02   0.879E+01 0.649E+02 0.470E+02   0.468E-01 -.228E+00 -.335E+00   -.502E-02 -.109E-01 -.136E-01
   0.604E+02 -.247E+02 0.467E+02   -.606E+02 0.248E+02 -.470E+02   0.175E+00 -.156E+00 0.336E+00   0.112E-01 -.497E-03 0.129E-01
   -.880E+01 0.646E+02 0.467E+02   0.876E+01 -.649E+02 -.470E+02   0.488E-01 0.228E+00 0.335E+00   -.543E-02 0.111E-01 0.139E-01
   -.516E+02 -.400E+02 0.467E+02   0.518E+02 0.401E+02 -.470E+02   -.221E+00 -.733E-01 0.335E+00   -.694E-02 -.981E-02 0.136E-01
   -.604E+02 0.247E+02 -.467E+02   0.606E+02 -.248E+02 0.470E+02   -.175E+00 0.156E+00 -.336E+00   -.112E-01 0.497E-03 -.129E-01
   0.516E+02 0.400E+02 -.467E+02   -.518E+02 -.401E+02 0.470E+02   0.221E+00 0.733E-01 -.335E+00   0.694E-02 0.981E-02 -.136E-01
   0.880E+01 -.646E+02 -.467E+02   -.876E+01 0.649E+02 0.470E+02   -.488E-01 -.228E+00 -.335E+00   0.543E-02 -.111E-01 -.139E-01
   -.545E+02 0.214E+02 -.488E+02   0.548E+02 -.214E+02 0.490E+02   -.297E+00 0.762E-01 -.168E+00   -.538E-02 -.248E-02 -.105E-01
   0.877E+01 -.579E+02 -.487E+02   -.885E+01 0.582E+02 0.489E+02   0.833E-01 -.297E+00 -.169E+00   0.509E-02 -.174E-02 -.948E-02
   0.457E+02 0.365E+02 -.487E+02   -.460E+02 -.367E+02 0.489E+02   0.216E+00 0.220E+00 -.168E+00   -.124E-02 0.497E-02 -.906E-02
   0.545E+02 -.214E+02 0.488E+02   -.548E+02 0.214E+02 -.490E+02   0.297E+00 -.762E-01 0.168E+00   0.538E-02 0.248E-02 0.105E-01
   -.457E+02 -.365E+02 0.487E+02   0.460E+02 0.367E+02 -.489E+02   -.216E+00 -.220E+00 0.168E+00   0.124E-02 -.497E-02 0.906E-02
   -.877E+01 0.579E+02 0.487E+02   0.885E+01 -.582E+02 -.489E+02   -.833E-01 0.297E+00 0.169E+00   -.509E-02 0.174E-02 0.948E-02
   -.458E+02 0.365E+02 -.488E+02   0.460E+02 -.368E+02 0.490E+02   -.215E+00 0.219E+00 -.168E+00   -.542E-03 0.590E-02 -.105E-01
   -.875E+01 -.579E+02 -.487E+02   0.883E+01 0.582E+02 0.489E+02   -.825E-01 -.297E+00 -.168E+00   -.492E-02 -.141E-02 -.906E-02
   0.545E+02 0.213E+02 -.487E+02   -.548E+02 -.214E+02 0.489E+02   0.299E+00 0.765E-01 -.169E+00   0.405E-02 -.353E-02 -.948E-02
   0.458E+02 -.365E+02 0.488E+02   -.460E+02 0.368E+02 -.490E+02   0.215E+00 -.219E+00 0.168E+00   0.542E-03 -.590E-02 0.105E-01
   -.545E+02 -.213E+02 0.487E+02   0.548E+02 0.214E+02 -.489E+02   -.299E+00 -.765E-01 0.169E+00   -.405E-02 0.353E-02 0.948E-02
   0.875E+01 0.579E+02 0.487E+02   -.883E+01 -.582E+02 -.489E+02   0.825E-01 0.297E+00 0.168E+00   0.492E-02 0.141E-02 0.906E-02
   -.998E-06 -.161E-05 0.631E-06   -.532E-05 -.872E-05 0.481E-05   0.150E-22 0.854E-21 -.194E-22   -.117E-09 -.225E-09 0.118E-08
   -.897E-06 -.167E-05 -.166E-06   -.489E-05 -.897E-05 -.145E-05   -.334E-22 0.509E-21 0.447E-21   -.149E-09 -.205E-09 -.321E-09
   0.438E-01 -.242E-01 -.426E+01   -.475E-01 0.261E-01 0.401E+01   -.132E-02 0.624E-03 0.275E+00   0.156E-02 -.575E-03 -.634E-02
   -.438E-01 0.242E-01 0.426E+01   0.475E-01 -.262E-01 -.401E+01   0.132E-02 -.624E-03 -.275E+00   -.156E-02 0.575E-03 0.634E-02
   0.429E-01 -.258E-01 -.426E+01   -.464E-01 0.280E-01 0.401E+01   -.120E-02 0.827E-03 0.275E+00   0.128E-02 -.106E-02 -.634E-02
   -.429E-01 0.258E-01 0.426E+01   0.464E-01 -.281E-01 -.401E+01   0.120E-02 -.827E-03 -.275E+00   -.128E-02 0.106E-02 0.634E-02
   0.479E+00 -.217E+01 -.704E-01   -.319E+00 0.209E+01 -.240E+00   -.156E+00 0.841E-01 0.305E+00   -.109E-03 -.176E-03 0.924E-04
   0.164E+01 0.150E+01 -.704E-01   -.165E+01 -.132E+01 -.240E+00   0.546E-02 -.177E+00 0.305E+00   0.154E-03 0.223E-04 0.897E-04
   -.212E+01 0.672E+00 -.695E-01   0.197E+01 -.770E+00 -.241E+00   0.151E+00 0.934E-01 0.305E+00   -.620E-04 0.149E-03 0.110E-03
   -.479E+00 0.217E+01 0.704E-01   0.319E+00 -.209E+01 0.240E+00   0.156E+00 -.841E-01 -.305E+00   0.109E-03 0.176E-03 -.924E-04
   -.164E+01 -.150E+01 0.704E-01   0.165E+01 0.132E+01 0.240E+00   -.546E-02 0.177E+00 -.305E+00   -.154E-03 -.223E-04 -.897E-04
   0.212E+01 -.672E+00 0.695E-01   -.197E+01 0.770E+00 0.241E+00   -.151E+00 -.934E-01 -.305E+00   0.620E-04 -.149E-03 -.110E-03
   -.212E+01 -.670E+00 0.704E-01   0.197E+01 0.768E+00 0.240E+00   0.151E+00 -.935E-01 -.305E+00   -.979E-04 -.182E-03 -.924E-04
   0.164E+01 -.150E+01 0.695E-01   -.165E+01 0.132E+01 0.241E+00   0.539E-02 0.177E+00 -.305E+00   0.160E-03 0.206E-04 -.110E-03
   0.477E+00 0.217E+01 0.704E-01   -.317E+00 -.209E+01 0.240E+00   -.156E+00 -.840E-01 -.305E+00   -.576E-04 0.144E-03 -.897E-04
   0.212E+01 0.670E+00 -.704E-01   -.197E+01 -.768E+00 -.240E+00   -.151E+00 0.935E-01 0.305E+00   0.979E-04 0.182E-03 0.924E-04
   -.164E+01 0.150E+01 -.695E-01   0.165E+01 -.132E+01 -.241E+00   -.539E-02 -.177E+00 0.305E+00   -.160E-03 -.206E-04 0.110E-03
   -.477E+00 -.217E+01 -.704E-01   0.317E+00 0.209E+01 -.240E+00   0.156E+00 0.840E-01 0.305E+00   0.576E-04 -.144E-03 0.897E-04
   0.441E+01 0.283E-02 -.125E-03   -.436E+01 -.316E-02 -.913E-04   -.409E-01 -.137E-03 0.236E-04   0.507E-03 -.116E-04 -.139E-04
   -.220E+01 0.382E+01 0.126E-03   0.218E+01 -.378E+01 0.934E-04   0.203E-01 -.355E-01 -.236E-04   -.264E-03 0.433E-03 0.139E-04
   -.221E+01 -.382E+01 0.162E-06   0.219E+01 0.378E+01 0.103E-05   0.205E-01 0.356E-01 0.256E-17   -.240E-03 -.415E-03 0.217E-11
   -.441E+01 -.283E-02 0.126E-03   0.436E+01 0.316E-02 0.947E-04   0.409E-01 0.137E-03 -.236E-04   -.507E-03 0.116E-04 0.139E-04
   0.220E+01 -.382E+01 -.126E-03   -.218E+01 0.378E+01 -.947E-04   -.203E-01 0.355E-01 0.236E-04   0.264E-03 -.433E-03 -.139E-04
   0.221E+01 0.382E+01 -.172E-07   -.219E+01 -.378E+01 0.373E-07   -.205E-01 -.356E-01 -.256E-17   0.240E-03 0.415E-03 -.177E-10
 -----------------------------------------------------------------------------------------------
   -.334E-04 -.578E-04 -.110E-02   0.111E-13 -.631E-13 0.105E-12   0.243E-15 0.111E-15 -.444E-15   -.280E-09 -.454E-09 0.152E-08
 
 
 POSITION                                       TOTAL-FORCE (eV/Angst)
 -----------------------------------------------------------------------------------
     -3.70520      8.57153      4.74420         0.010633     -0.013304      0.006210
      0.04698      2.23525      4.74425         0.006474      0.016204      0.006143
      3.65825      8.65294      4.74423        -0.016885     -0.002957      0.006271
      9.32279      1.15832      7.47313        -0.010633      0.013304     -0.006210
      1.95935      1.07690      7.47310         0.016885      0.002957     -0.006271
      5.57061      7.49459      7.47308        -0.006474     -0.016204     -0.006143
     -3.65819      8.65289     10.85287         0.016838     -0.002556      0.006210
     -0.04697      2.23525     10.85289        -0.005882      0.016101      0.006271
      3.70528      8.57154     10.85292        -0.010796     -0.013709      0.006143
      9.27578      1.07695      1.36447        -0.016838      0.002556     -0.006210
      1.91232      1.15830      1.36442         0.010796      0.013709     -0.006143
      5.66457      7.49459      1.36444         0.005882     -0.016101     -0.006271
     -1.91829      7.49084      1.70616        -0.006616      0.001694      0.005823
      0.08948      4.32319      1.70619         0.002127     -0.008202      0.004735
      1.82882      7.64574      1.70618         0.006294      0.005310      0.004670
      7.53589      2.23900     10.51117         0.006616     -0.001694     -0.005823
      3.78877      2.08410     10.51115        -0.006294     -0.005310     -0.004670
      5.52812      5.40666     10.51114        -0.002127      0.008202     -0.004735
     -1.82883      7.64573      7.81483        -0.004775      0.004882      0.005823
     -0.08942      4.32318      7.81485        -0.001452     -0.008106      0.004670
      1.91832      7.49078      7.81486         0.008167      0.002259      0.004735
      7.44643      2.08412      4.40250         0.004775     -0.004882     -0.005823
      3.69928      2.23907      4.40247        -0.008167     -0.002259     -0.004735
      5.70702      5.40666      4.40249         0.001452      0.008106     -0.004670
      1.83714      5.28807      4.65677         0.005610     -0.010799      0.000018
      0.11938      8.67684      4.65679         0.006671      0.008550     -0.001025
     -1.95648      5.49479      4.65682        -0.010493      0.001400     -0.001238
      3.78046      4.44178      7.56057        -0.005610      0.010799     -0.000018
      7.57408      4.23506      7.56051         0.010493     -0.001400      0.001238
      5.49822      1.05300      7.56054        -0.006671     -0.008550      0.001025
      1.95654      5.49482     10.76543         0.012157      0.000541      0.000018
     -0.11930      8.67683     10.76549        -0.006459      0.008387     -0.001238
     -1.83711      5.28805     10.76546        -0.004068     -0.010052     -0.001025
      3.66106      4.23502      1.45190        -0.012157     -0.000541     -0.000018
      7.45470      4.44179      1.45188         0.004068      0.010052      0.001025
      5.73689      1.05302      1.45184         0.006459     -0.008387      0.001238
      0.00000      0.00000     -0.00000        -0.000000      0.000000     -0.000000
      0.00003     -0.00001      6.10867        -0.000000      0.000000     -0.000000
      0.00027      6.48642      3.18733        -0.003456      0.001960      0.015810
      5.61732      3.24342      9.03001         0.003456     -0.001960     -0.015810
      0.00030      6.48641      9.29599        -0.003425      0.002013      0.015810
      5.61730      3.24343      2.92134         0.003425     -0.002013     -0.015810
      2.05941      3.22589     11.85900         0.003297      0.002286     -0.005657
      7.41181      0.17043     11.85906        -0.004245      0.002021     -0.005774
      7.38155      6.33348     11.85902         0.000924     -0.004361     -0.005440
      3.55819      6.50395      0.35833        -0.003297     -0.002286      0.005657
     -1.79421      9.55942      0.35828         0.004245     -0.002021      0.005774
     -1.76396      3.39636      0.35831        -0.000924      0.004361      0.005440
      1.76408      3.39640      6.46700         0.000331      0.003998      0.005657
      1.79426      9.55931      6.46698        -0.004239     -0.001380      0.005440
     -3.55823      6.50398      6.46694         0.003873     -0.002665      0.005774
      3.85352      6.33344      5.75034        -0.000331     -0.003998     -0.005657
      3.82334      0.17054      5.75035         0.004239      0.001380     -0.005440
      9.17583      3.22586      5.75039        -0.003873      0.002665     -0.005774
      3.63721      0.00005      9.16303         0.000835     -0.000480     -0.000210
     -1.81849      3.14989      9.16297        -0.000833      0.000483      0.000210
      3.79894      6.57988      9.16300        -0.000110     -0.000191     -0.000000
      1.98039      9.72980      3.05430        -0.000835      0.000480      0.000210
      7.43608      6.57995      3.05437         0.000833     -0.000483     -0.000210
      1.81865      3.14997      3.05433         0.000110      0.000191     -0.000000
 -----------------------------------------------------------------------------------
    total drift:                               -0.000033     -0.000058     -0.001098


--------------------------------------------------------------------------------------------------------



  FREE ENERGIE OF THE ION-ELECTRON SYSTEM (eV)
  ---------------------------------------------------
  free  energy   TOTEN  =      -246.94737411 eV

  energy  without entropy=     -246.94737411  energy(sigma->0) =     -246.94737411
 
 d Force = 0.1188222E-02[-0.103E-04, 0.239E-02]  d Energy = 0.1317761E-02-0.130E-03
 d Force =-0.7526441E+01[-0.756E+01,-0.750E+01]  d Ewald  =-0.7526425E+01-0.165E-04


--------------------------------------------------------------------------------------------------------


    POTLOK:  cpu time      0.0858: real time      0.0865


--------------------------------------------------------------------------------------------------------




--------------------------------------------------------------------------------------------------------


    WAVPRE:  cpu time      0.0320: real time      0.0510
    FEWALD:  cpu time      0.0008: real time      0.0008
    ORTHCH:  cpu time      0.3543: real time      0.3556
     LOOP+:  cpu time     24.6497: real time     24.9314


--------------------------------------- Ionic step        4  -------------------------------------------




--------------------------------------- Iteration      4(   1)  ---------------------------------------


    POTLOK:  cpu time      0.0764: real time      0.0807
    SETDIJ:  cpu time      0.0069: real time      0.0069
     EDDAV:  cpu time      3.1104: real time      3.1224
       DOS:  cpu time      0.0003: real time      0.0003
    CHARGE:  cpu time      0.1514: real time      0.1518
    MIXING:  cpu time      0.0019: real time      0.0019
    --------------------------------------------
      LOOP:  cpu time      3.3474: real time      3.3640

 eigenvalue-minimisations  :   672
 total energy-change (2. order) :-0.1049232E-03  (-0.6826298E-02)
 number of electron     324.0000003 magnetization 
 augmentation part      -11.6095375 magnetization 

 Broyden mixing:
  rms(total) = 0.11608E-01    rms(broyden)= 0.11607E-01
  rms(prec ) = 0.11915E-01
  weight for this iteration     100.00

 Free energy of the ion-electron system (eV)
  ---------------------------------------------------
  alpha Z        PSCENC =       542.72806157
  Ewald energy   TEWEN  =    -14340.41760366
  -Hartree energ DENC   =     -4171.68524548
  -exchange      EXHF   =         0.00000000
  -V(xc)+E(xc)   XCENC  =       616.81591692
  PAW double counting   =     22640.17782027   -22289.32913718
  entropy T*S    EENTRO =        -0.00000000
  eigenvalues    EBANDS =     -2128.29423364
  atomic energy  EATOM  =     18883.05693546
  Solvation  Ediel_sol  =         0.00000000
  ---------------------------------------------------
  free energy    TOTEN  =      -246.94748575 eV

  energy without entropy =     -246.94748575  energy(sigma->0) =     -246.94748575


--------------------------------------------------------------------------------------------------------




--------------------------------------- Iteration      4(   2)  ---------------------------------------


    POTLOK:  cpu time      0.0837: real time      0.1187
    SETDIJ:  cpu time      0.0071: real time      0.0072
     EDDAV:  cpu time      3.2143: real time      3.2266
       DOS:  cpu time      0.0003: real time      0.0003
    CHARGE:  cpu time      0.1509: real time      0.1513
    MIXING:  cpu time      0.0022: real time      0.0022
    --------------------------------------------
      LOOP:  cpu time      3.4585: real time      3.5063

 eigenvalue-minimisations  :   672
 total energy-change (2. order) :-0.3789152E-03  (-0.4051487E-03)
 number of electron     324.0000003 magnetization 
 augmentation part      -11.6094839 magnetization 

 Broyden mixing:
  rms(total) = 0.35343E-02    rms(broyden)= 0.35333E-02
  rms(prec ) = 0.37867E-02
  weight for this iteration     100.00

 eigenvalues of (default mixing * dielectric matrix)
  average eigenvalue GAMMA=   0.9286
  0.9286

 Free energy of the ion-electron system (eV)
  ---------------------------------------------------
  alpha Z        PSCENC =       542.72806157
  Ewald energy   TEWEN  =    -14340.41760366
  -Hartree energ DENC   =     -4171.65153398
  -exchange      EXHF   =         0.00000000
  -V(xc)+E(xc)   XCENC  =       616.81523509
  PAW double counting   =     22640.34871693   -22289.50074767
  entropy T*S    EENTRO =        -0.00000000
  eigenvalues    EBANDS =     -2128.32692840
  atomic energy  EATOM  =     18883.05693546
  Solvation  Ediel_sol  =         0.00000000
  ---------------------------------------------------
  free energy    TOTEN  =      -246.94786466 eV

  energy without entropy =     -246.94786466  energy(sigma->0) =     -246.94786466


--------------------------------------------------------------------------------------------------------




--------------------------------------- Iteration      4(   3)  ---------------------------------------


    POTLOK:  cpu time      0.0819: real time      0.1168
    SETDIJ:  cpu time      0.0069: real time      0.0073
     EDDAV:  cpu time      3.8806: real time      3.8955
       DOS:  cpu time      0.0002: real time      0.0002
    CHARGE:  cpu time      0.1502: real time      0.1511
    MIXING:  cpu time      0.0021: real time      0.0021
    --------------------------------------------
      LOOP:  cpu time      4.1218: real time      4.1730

 eigenvalue-minimisations  :   864
 total energy-change (2. order) :-0.1285849E-04  (-0.2017860E-04)
 number of electron     324.0000003 magnetization 
 augmentation part      -11.6093625 magnetization 

 Broyden mixing:
  rms(total) = 0.30818E-02    rms(broyden)= 0.30817E-02
  rms(prec ) = 0.32655E-02
  weight for this iteration     100.00

 eigenvalues of (default mixing * dielectric matrix)
  average eigenvalue GAMMA=   1.3796
  1.3796  1.3796

 Free energy of the ion-electron system (eV)
  ---------------------------------------------------
  alpha Z        PSCENC =       542.72806157
  Ewald energy   TEWEN  =    -14340.41760366
  -Hartree energ DENC   =     -4171.63979423
  -exchange      EXHF   =         0.00000000
  -V(xc)+E(xc)   XCENC  =       616.81491187
  PAW double counting   =     22640.44353109   -22289.59592449
  entropy T*S    EENTRO =        -0.00000000
  eigenvalues    EBANDS =     -2128.33799514
  atomic energy  EATOM  =     18883.05693546
  Solvation  Ediel_sol  =         0.00000000
  ---------------------------------------------------
  free energy    TOTEN  =      -246.94787752 eV

  energy without entropy =     -246.94787752  energy(sigma->0) =     -246.94787752


--------------------------------------------------------------------------------------------------------




--------------------------------------- Iteration      4(   4)  ---------------------------------------


    POTLOK:  cpu time      0.0906: real time      0.1353
    SETDIJ:  cpu time      0.0071: real time      0.0071
     EDDAV:  cpu time      2.3990: real time      2.4084
       DOS:  cpu time      0.0002: real time      0.0002
    CHARGE:  cpu time      0.1510: real time      0.1515
    MIXING:  cpu time      0.0022: real time      0.0022
    --------------------------------------------
      LOOP:  cpu time      2.6500: real time      2.7047

 eigenvalue-minimisations  :   480
 total energy-change (2. order) : 0.6527298E-05  (-0.1095218E-05)
 number of electron     324.0000003 magnetization 
 augmentation part      -11.6092682 magnetization 

 Broyden mixing:
  rms(total) = 0.20450E-02    rms(broyden)= 0.20450E-02
  rms(prec ) = 0.20894E-02
  weight for this iteration     100.00

 eigenvalues of (default mixing * dielectric matrix)
  average eigenvalue GAMMA=   1.7273
  3.0089  1.3281  0.8448

 Free energy of the ion-electron system (eV)
  ---------------------------------------------------
  alpha Z        PSCENC =       542.72806157
  Ewald energy   TEWEN  =    -14340.41760366
  -Hartree energ DENC   =     -4171.63619351
  -exchange      EXHF   =         0.00000000
  -V(xc)+E(xc)   XCENC  =       616.81460764
  PAW double counting   =     22640.28630381   -22289.43854595
  entropy T*S    EENTRO =        -0.00000000
  eigenvalues    EBANDS =     -2128.34143635
  atomic energy  EATOM  =     18883.05693546
  Solvation  Ediel_sol  =         0.00000000
  ---------------------------------------------------
  free energy    TOTEN  =      -246.94787099 eV

  energy without entropy =     -246.94787099  energy(sigma->0) =     -246.94787099


--------------------------------------------------------------------------------------------------------




--------------------------------------- Iteration      4(   5)  ---------------------------------------


    POTLOK:  cpu time      0.1093: real time      0.1113
    SETDIJ:  cpu time      0.0070: real time      0.0070
     EDDAV:  cpu time      2.0333: real time      2.0410
       DOS:  cpu time      0.0002: real time      0.0002
    CHARGE:  cpu time      0.1517: real time      0.1523
    MIXING:  cpu time      0.0021: real time      0.0021
    --------------------------------------------
      LOOP:  cpu time      2.3037: real time      2.3139

 eigenvalue-minimisations  :   384
 total energy-change (2. order) : 0.1501612E-06  (-0.9225118E-06)
 number of electron     324.0000003 magnetization 
 augmentation part      -11.6093422 magnetization 

 Broyden mixing:
  rms(total) = 0.94036E-03    rms(broyden)= 0.94036E-03
  rms(prec ) = 0.95820E-03
  weight for this iteration     100.00

 eigenvalues of (default mixing * dielectric matrix)
  average eigenvalue GAMMA=   1.6580
  3.8312  1.2443  0.7784  0.7784

 Free energy of the ion-electron system (eV)
  ---------------------------------------------------
  alpha Z        PSCENC =       542.72806157
  Ewald energy   TEWEN  =    -14340.41760366
  -Hartree energ DENC   =     -4171.63610343
  -exchange      EXHF   =         0.00000000
  -V(xc)+E(xc)   XCENC  =       616.81433391
  PAW double counting   =     22640.03660959   -22289.18834618
  entropy T*S    EENTRO =        -0.00000000
  eigenvalues    EBANDS =     -2128.34175810
  atomic energy  EATOM  =     18883.05693546
  Solvation  Ediel_sol  =         0.00000000
  ---------------------------------------------------
  free energy    TOTEN  =      -246.94787084 eV

  energy without entropy =     -246.94787084  energy(sigma->0) =     -246.94787084


--------------------------------------------------------------------------------------------------------




--------------------------------------- Iteration      4(   6)  ---------------------------------------


    POTLOK:  cpu time      0.0879: real time      0.0930
    SETDIJ:  cpu time      0.0070: real time      0.0071
     EDDAV:  cpu time      2.0311: real time      2.0397
       DOS:  cpu time      0.0002: real time      0.0001
    --------------------------------------------
      LOOP:  cpu time      2.1262: real time      2.1399

 eigenvalue-minimisations  :   384
 total energy-change (2. order) :-0.5717011E-06  (-0.3601966E-06)
 number of electron     324.0000003 magnetization 
 augmentation part      -11.6093422 magnetization 

 Free energy of the ion-electron system (eV)
  ---------------------------------------------------
  alpha Z        PSCENC =       542.72806157
  Ewald energy   TEWEN  =    -14340.41760366
  -Hartree energ DENC   =     -4171.63601390
  -exchange      EXHF   =         0.00000000
  -V(xc)+E(xc)   XCENC  =       616.81420722
  PAW double counting   =     22640.06498791   -22289.21669166
  entropy T*S    EENTRO =        -0.00000000
  eigenvalues    EBANDS =     -2128.34175436
  atomic energy  EATOM  =     18883.05693546
  Solvation  Ediel_sol  =         0.00000000
  ---------------------------------------------------
  free energy    TOTEN  =      -246.94787141 eV

  energy without entropy =     -246.94787141  energy(sigma->0) =     -246.94787141


--------------------------------------------------------------------------------------------------------




 average (electrostatic) potential at core
  the test charge radii are     0.9406  1.3020  0.9748
  (the norm of the test charge is              1.0000)
       1 -93.6323       2 -93.6324       3 -93.6324       4 -93.6323       5 -93.6324
       6 -93.6324       7 -93.6323       8 -93.6324       9 -93.6324      10 -93.6323
      11 -93.6324      12 -93.6324      13 -93.5409      14 -93.5412      15 -93.5412
      16 -93.5409      17 -93.5412      18 -93.5412      19 -93.5409      20 -93.5412
      21 -93.5412      22 -93.5409      23 -93.5412      24 -93.5412      25 -93.5826
      26 -93.5823      27 -93.5823      28 -93.5826      29 -93.5823      30 -93.5824
      31 -93.5826      32 -93.5823      33 -93.5824      34 -93.5826      35 -93.5823
      36 -93.5823      37 -36.1408      38 -36.1408      39 -36.2244      40 -36.2244
      41 -36.2244      42 -36.2244      43 -28.4476      44 -28.4475      45 -28.4476
      46 -28.4476      47 -28.4475      48 -28.4476      49 -28.4476      50 -28.4476
      51 -28.4475      52 -28.4476      53 -28.4476      54 -28.4475      55 -28.3230
      56 -28.3230      57 -28.3231      58 -28.3230      59 -28.3230      60 -28.3231
 
 
 
 E-fermi :   0.0769     XC(G=0):  -8.2171     alpha+bet : -8.3650

 Fermi energy:         0.0768853889

 k-point     1 :       0.0000    0.0000    0.0000
  band No.  band energies     occupation 
      1     -23.1482      2.00000
      2     -23.1482      2.00000
      3     -23.1481      2.00000
      4     -23.1481      2.00000
      5     -23.1479      2.00000
      6     -23.1479      2.00000
      7     -23.1478      2.00000
      8     -23.1478      2.00000
      9     -23.1343      2.00000
     10     -23.1341      2.00000
     11     -23.1338      2.00000
     12     -23.1337      2.00000
     13     -23.1073      2.00000
     14     -23.1070      2.00000
     15     -23.0828      2.00000
     16     -23.0828      2.00000
     17     -23.0828      2.00000
     18     -23.0828      2.00000
     19     -13.6693      2.00000
     20     -13.4766      2.00000
     21     -13.4155      2.00000
     22     -13.3619      2.00000
     23     -13.3205      2.00000
     24     -13.2804      2.00000
     25     -13.2803      2.00000
     26     -13.2609      2.00000
     27     -13.2608      2.00000
     28     -13.2406      2.00000
     29     -13.2349      2.00000
     30     -13.2348      2.00000
     31     -13.1792      2.00000
     32     -13.1792      2.00000
     33     -13.1677      2.00000
     34     -13.1677      2.00000
     35     -13.1372      2.00000
     36     -13.1371      2.00000
     37     -13.1298      2.00000
     38     -13.0664      2.00000
     39     -13.0616      2.00000
     40     -13.0615      2.00000
     41     -13.0517      2.00000
     42     -13.0516      2.00000
     43     -13.0488      2.00000
     44     -13.0486      2.00000
     45     -13.0484      2.00000
     46     -13.0483      2.00000
     47     -13.0388      2.00000
     48     -12.9845      2.00000
     49     -12.9764      2.00000
     50     -12.9763      2.00000
     51     -12.9306      2.00000
     52     -12.9306      2.00000
     53     -12.9283      2.00000
     54     -12.9075      2.00000
     55      -3.2162      2.00000
     56      -3.0073      2.00000
     57      -2.9188      2.00000
     58      -2.9039      2.00000
     59      -2.9039      2.00000
     60      -2.8897      2.00000
     61      -2.8031      2.00000
     62      -2.8030      2.00000
     63      -2.7921      2.00000
     64      -2.7898      2.00000
     65      -2.6730      2.00000
     66      -2.6729      2.00000
     67      -2.6586      2.00000
     68      -2.6585      2.00000
     69      -2.5729      2.00000
     70      -2.5728      2.00000
     71      -2.5307      2.00000
     72      -2.5306      2.00000
     73      -2.5252      2.00000
     74      -2.5251      2.00000
     75      -2.4752      2.00000
     76      -2.4752      2.00000
     77      -2.4371      2.00000
     78      -2.4356      2.00000
     79      -2.4356      2.00000
     80      -2.3618      2.00000
     81      -2.3407      2.00000
     82      -2.3407      2.00000
     83      -2.2738      2.00000
     84      -2.2737      2.00000
     85      -2.2078      2.00000
     86      -2.1955      2.00000
     87      -2.1434      2.00000
     88      -2.1421      2.00000
     89      -2.1419      2.00000
     90      -2.0658      2.00000
     91      -2.0520      2.00000
     92      -2.0520      2.00000
     93      -2.0517      2.00000
     94      -1.8964      2.00000
     95      -1.8570      2.00000
     96      -1.8545      2.00000
     97      -1.7822      2.00000
     98      -1.7804      2.00000
     99      -1.7804      2.00000
    100      -1.7661      2.00000
    101      -1.7660      2.00000
    102      -1.7591      2.00000
    103      -1.7292      2.00000
    104      -1.7292      2.00000
    105      -1.7291      2.00000
    106      -1.6122      2.00000
    107      -1.6122      2.00000
    108      -1.5361      2.00000
    109      -1.5090      2.00000
    110      -1.5089      2.00000
    111      -1.4891      2.00000
    112      -1.4891      2.00000
    113      -1.4844      2.00000
    114      -1.4843      2.00000
    115      -1.3913      2.00000
    116      -1.3905      2.00000
    117      -1.2977      2.00000
    118      -1.2528      2.00000
    119      -1.2526      2.00000
    120      -1.2443      2.00000
    121      -1.1309      2.00000
    122      -1.1308      2.00000
    123      -1.0723      2.00000
    124      -1.0716      2.00000
    125      -1.0619      2.00000
    126      -1.0619      2.00000
    127      -1.0383      2.00000
    128      -1.0383      2.00000
    129      -1.0258      2.00000
    130      -1.0235      2.00000
    131      -1.0235      2.00000
    132      -0.9908      2.00000
    133      -0.9908      2.00000
    134      -0.9895      2.00000
    135      -0.9895      2.00000
    136      -0.9442      2.00000
    137      -0.9181      2.00000
    138      -0.8796      2.00000
    139      -0.8795      2.00000
    140      -0.8780      2.00000
    141      -0.8170      2.00000
    142      -0.8169      2.00000
    143      -0.7859      2.00000
    144      -0.7859      2.00000
    145      -0.7687      2.00000
    146      -0.7637      2.00000
    147      -0.6904      2.00000
    148      -0.6439      2.00000
    149      -0.6439      2.00000
    150      -0.6273      2.00000
    151      -0.6273      2.00000
    152      -0.6121      2.00000
    153      -0.6121      2.00000
    154      -0.5782      2.00000
    155      -0.5468      2.00000
    156      -0.5340      2.00000
    157      -0.5339      2.00000
    158      -0.4605      2.00000
    159      -0.4604      2.00000
    160      -0.4596      2.00000
    161      -0.4596      2.00000
    162      -0.4106      2.00000
    163       4.9147      0.00000
    164       4.9299      0.00000
    165       4.9299      0.00000
    166       4.9726      0.00000
    167       4.9726      0.00000
    168       5.0282      0.00000
    169       5.0598      0.00000
    170       5.0598      0.00000
    171       5.0698      0.00000
    172       5.0698      0.00000
    173       5.1273      0.00000
    174       5.1273      0.00000
    175       5.1919      0.00000
    176       5.2513      0.00000
    177       5.2649      0.00000
    178       5.2773      0.00000
    179       5.3347      0.00000
    180       5.3347      0.00000
    181       5.7042      0.00000
    182       6.7331      0.00000
    183       6.7331      0.00000
    184       6.8601      0.00000
    185       6.9687      0.00000
    186       6.9687      0.00000
    187       7.0006      0.00000
    188       7.0006      0.00000
    189       7.0941      0.00000
    190       7.1681      0.00000
    191       7.2078      0.00000
    192       7.2078      0.00000
    193       7.2417      0.00000
    194       7.2417      0.00000
    195       7.2572      0.00000
    196       7.2573      0.00000
    197       7.3006      0.00000
    198       7.4022      0.00000
    199       7.4909      0.00000
    200       7.4920      0.00000
    201       7.7275      0.00000
    202       7.7275      0.00000
    203       7.7609      0.00000
    204       7.7609      0.00000
    205       7.9153      0.00000
    206       7.9350      0.00000
    207       7.9615      0.00000
    208       7.9617      0.00000
    209       8.1328      0.00000
    210       8.1328      0.00000
    211       8.2291      0.00000
    212       8.2291      0.00000
    213       8.3379      0.00000
    214       8.3379      0.00000
    215       8.3605      0.00000
    216       8.3820      0.00000
    217       8.5793      0.00000
    218       8.5793      0.00000
    219       8.6483      0.00000
    220       8.6915      0.00000
    221       8.6916      0.00000
    222       8.7118      0.00000
    223       8.7119      0.00000
    224       8.8811      0.00000
    225       8.8812      0.00000
    226       9.1994      0.00000
    227       9.2207      0.00000
    228       9.2207      0.00000
    229       9.2355      0.00000
    230       9.2438      0.00000
    231       9.2709      0.00000
    232       9.2710      0.00000
    233       9.2867      0.00000
    234       9.4252      0.00000
    235       9.4253      0.00000
    236       9.4849      0.00000
    237       9.4849      0.00000
    238       9.4969      0.00000
    239       9.6562      0.00000
    240       9.7689      0.00000


--------------------------------------------------------------------------------------------------------


 soft charge-density along one line, spin component           1
         0         1         2         3         4         5         6         7         8         9
 total charge-density along one line
 
 pseudopotential strength for first ion, spin component:           1
 47.758  50.124   0.002   0.010  -0.007   0.002   0.013  -0.009
 50.124  52.611   0.002   0.011  -0.008   0.003   0.013  -0.009
  0.002   0.002   9.147   0.002  -0.001  11.343   0.002  -0.001
  0.010   0.011   0.002   9.146  -0.001   0.002  11.343  -0.001
 -0.007  -0.008  -0.001  -0.001   9.147  -0.001  -0.001  11.344
  0.002   0.003  11.343   0.002  -0.001  14.083   0.002  -0.001
  0.013   0.013   0.002  11.343  -0.001   0.002  14.083  -0.002
 -0.009  -0.009  -0.001  -0.001  11.344  -0.001  -0.002  14.084
 total augmentation occupancy for first ion, spin component:           1
  2.219  -1.299  -0.266  -1.092   0.760   0.080   0.335  -0.223
 -1.299   2.201   0.269   1.080  -0.755  -0.097  -0.384   0.261
 -0.266   0.269   3.552   0.268  -0.138  -0.881  -0.159   0.085
 -1.092   1.080   0.268   3.466  -0.179  -0.159  -0.831   0.110
  0.760  -0.755  -0.138  -0.179   3.623   0.085   0.110  -0.919
  0.080  -0.097  -0.881  -0.159   0.085   0.257   0.068  -0.041
  0.335  -0.384  -0.159  -0.831   0.110   0.068   0.239  -0.055
 -0.223   0.261   0.085   0.110  -0.919  -0.041  -0.055   0.271


------------------------ aborting loop because EDIFF is reached ----------------------------------------





 total charge

# of ion       s       p       d       tot
------------------------------------------
    1        1.592   3.581   0.000   5.174
    2        1.592   3.581   0.000   5.174
    3        1.592   3.581   0.000   5.174
    4        1.592   3.581   0.000   5.174
    5        1.592   3.581   0.000   5.174
    6        1.592   3.581   0.000   5.174
    7        1.592   3.581   0.000   5.174
    8        1.592   3.581   0.000   5.174
    9        1.592   3.581   0.000   5.174
   10        1.592   3.581   0.000   5.174
   11        1.592   3.581   0.000   5.174
   12        1.592   3.581   0.000   5.174
   13        1.591   3.586   0.000   5.177
   14        1.591   3.586   0.000   5.177
   15        1.591   3.586   0.000   5.177
   16        1.591   3.586   0.000   5.177
   17        1.591   3.586   0.000   5.177
   18        1.591   3.586   0.000   5.177
   19        1.591   3.586   0.000   5.177
   20        1.591   3.586   0.000   5.177
   21        1.591   3.586   0.000   5.177
   22        1.591   3.586   0.000   5.177
   23        1.591   3.586   0.000   5.177
   24        1.591   3.586   0.000   5.177
   25        1.591   3.585   0.000   5.175
   26        1.591   3.585   0.000   5.175
   27        1.591   3.585   0.000   5.175
   28        1.591   3.585   0.000   5.175
   29        1.591   3.585   0.000   5.175
   30        1.591   3.585   0.000   5.175
   31        1.591   3.585   0.000   5.175
   32        1.591   3.585   0.000   5.175
   33        1.591   3.585   0.000   5.175
   34        1.591   3.585   0.000   5.175
   35        1.591   3.585   0.000   5.175
   36        1.591   3.585   0.000   5.175
   37        0.349   6.833   1.056   8.238
   38        0.349   6.833   1.056   8.238
   39        0.339   6.793   1.020   8.152
   40        0.339   6.793   1.020   8.152
   41        0.339   6.793   1.020   8.152
   42        0.339   6.793   1.020   8.152
   43        0.055   0.100   0.000   0.154
   44        0.055   0.100   0.000   0.154
   45        0.055   0.100   0.000   0.154
   46        0.055   0.100   0.000   0.154
   47        0.055   0.100   0.000   0.154
   48        0.055   0.100   0.000   0.154
   49        0.055   0.100   0.000   0.154
   50        0.055   0.100   0.000   0.154
   51        0.055   0.100   0.000   0.154
   52        0.055   0.100   0.000   0.154
   53        0.055   0.100   0.000   0.154
   54        0.055   0.100   0.000   0.154
   55        0.057   0.107   0.000   0.164
   56        0.057   0.107   0.000   0.164
   57        0.057   0.107   0.000   0.164
   58        0.057   0.107   0.000   0.164
   59        0.057   0.107   0.000   0.164
   60        0.057   0.107   0.000   0.164
--------------------------------------------------
tot         60.342 171.702   6.191 238.235
 
    CHARGE:  cpu time      0.1478: real time      0.1481
    FORLOC:  cpu time      0.0194: real time      0.0195
    FORNL :  cpu time      0.4469: real time      0.4481
    STRESS:  cpu time      2.9035: real time      2.9144
    FORCOR:  cpu time      0.0850: real time      0.0852
    FORHAR:  cpu time      0.0328: real time      0.0332
    MIXING:  cpu time      0.0024: real time      0.0024
    OFIELD:  cpu time      0.0000: real time      0.0000

  FORCE on cell =-STRESS in cart. coord.  units (eV):
  Direction    XX          YY          ZZ          XY          YZ          ZX
  --------------------------------------------------------------------------------------
  Alpha Z   542.72806   542.72806   542.72806
  Ewald   -4571.10019 -4571.12518 -5198.26297    -0.02165     0.01486    -0.02573
  Hartree  1498.18462  1498.16942  1175.28568    -0.01317     0.00791    -0.01371
  E(xc)   -1203.77982 -1203.77984 -1203.91098    -0.00002     0.00002    -0.00003
  Local   -3229.48853 -3229.44845 -2292.22013     0.03471    -0.02268     0.03928
  n-local  2920.31933  2920.31912  2912.50478    -0.00018     0.00019    -0.00033
  augment  -563.04289  -563.04329  -564.00896    -0.00034     0.00000    -0.00001
  Kinetic  4608.52869  4608.52951  4627.55688     0.00070     0.00037    -0.00063
  Fock        0.00000     0.00000     0.00000     0.00000     0.00000     0.00000
  -------------------------------------------------------------------------------------
  Total       2.34927     2.34935    -0.32762     0.00007     0.00067    -0.00116
  in kB       2.81828     2.81837    -0.39303     0.00008     0.00080    -0.00139
  external pressure =        1.75 kB  Pullay stress =        0.00 kB


 VOLUME and BASIS-vectors are now :
 -----------------------------------------------------------------------------
  energy-cutoff  :      520.00
  volume of cell :     1335.55
      direct lattice vectors                 reciprocal lattice vectors
    11.235081330  0.000005465  0.000050225     0.089006896  0.051388098 -0.000000246
    -5.617535933  9.729868578 -0.000050225    -0.000000050  0.102776282  0.000000246
     0.000050679 -0.000029260 12.217332919    -0.000000366  0.000000211  0.081850925

  length of vectors
    11.235081331 11.235081331 12.217332919     0.102776282  0.102776282  0.081850925


 FORCES acting on ions
    electron-ion (+dipol)            ewald-force                    non-local-force                 convergence-correction
 -----------------------------------------------------------------------------------------------
   -.494E+02 0.186E+02 0.615E+02   0.498E+02 -.186E+02 -.621E+02   -.407E+00 -.653E-01 0.688E+00   0.212E-02 -.274E-02 0.192E-02
   0.858E+01 -.521E+02 0.615E+02   -.883E+01 0.524E+02 -.621E+02   0.260E+00 -.319E+00 0.688E+00   0.145E-02 0.324E-02 0.201E-02
   0.408E+02 0.335E+02 0.615E+02   -.410E+02 -.339E+02 -.621E+02   0.147E+00 0.385E+00 0.688E+00   -.342E-02 -.587E-03 0.206E-02
   0.494E+02 -.186E+02 -.615E+02   -.498E+02 0.186E+02 0.621E+02   0.407E+00 0.653E-01 -.688E+00   -.212E-02 0.274E-02 -.192E-02
   -.408E+02 -.335E+02 -.615E+02   0.410E+02 0.339E+02 0.621E+02   -.147E+00 -.385E+00 -.688E+00   0.342E-02 0.587E-03 -.206E-02
   -.858E+01 0.521E+02 -.615E+02   0.883E+01 -.524E+02 0.621E+02   -.260E+00 0.319E+00 -.688E+00   -.145E-02 -.324E-02 -.201E-02
   -.409E+02 0.335E+02 0.615E+02   0.410E+02 -.339E+02 -.621E+02   -.147E+00 0.385E+00 0.688E+00   0.343E-02 -.467E-03 0.192E-02
   -.857E+01 -.521E+02 0.615E+02   0.883E+01 0.524E+02 -.621E+02   -.260E+00 -.320E+00 0.688E+00   -.120E-02 0.325E-02 0.206E-02
   0.494E+02 0.186E+02 0.615E+02   -.498E+02 -.186E+02 -.621E+02   0.407E+00 -.655E-01 0.688E+00   -.208E-02 -.288E-02 0.201E-02
   0.409E+02 -.335E+02 -.615E+02   -.410E+02 0.339E+02 0.621E+02   0.147E+00 -.385E+00 -.688E+00   -.343E-02 0.467E-03 -.192E-02
   -.494E+02 -.186E+02 -.615E+02   0.498E+02 0.186E+02 0.621E+02   -.407E+00 0.655E-01 -.688E+00   0.208E-02 0.288E-02 -.201E-02
   0.857E+01 0.521E+02 -.615E+02   -.883E+01 -.524E+02 0.621E+02   0.260E+00 0.320E+00 -.688E+00   0.120E-02 -.325E-02 -.206E-02
   0.515E+02 -.400E+02 0.467E+02   -.517E+02 0.401E+02 -.470E+02   0.223E+00 -.660E-01 0.325E+00   -.172E-02 -.483E-03 0.195E-02
   0.889E+01 0.646E+02 0.467E+02   -.883E+01 -.648E+02 -.470E+02   -.540E-01 0.226E+00 0.325E+00   0.131E-02 -.173E-02 0.155E-02
   -.604E+02 -.246E+02 0.467E+02   0.606E+02 0.248E+02 -.470E+02   -.168E+00 -.160E+00 0.325E+00   0.862E-03 0.188E-02 0.156E-02
   -.515E+02 0.400E+02 -.467E+02   0.517E+02 -.401E+02 0.470E+02   -.223E+00 0.660E-01 -.325E+00   0.172E-02 0.483E-03 -.195E-02
   0.604E+02 0.246E+02 -.467E+02   -.606E+02 -.248E+02 0.470E+02   0.168E+00 0.160E+00 -.325E+00   -.862E-03 -.188E-02 -.156E-02
   -.889E+01 -.646E+02 -.467E+02   0.883E+01 0.648E+02 0.470E+02   0.540E-01 -.226E+00 -.325E+00   -.131E-02 0.173E-02 -.155E-02
   0.604E+02 -.246E+02 0.467E+02   -.606E+02 0.248E+02 -.470E+02   0.169E+00 -.160E+00 0.325E+00   -.442E-03 0.173E-02 0.195E-02
   -.887E+01 0.646E+02 0.467E+02   0.882E+01 -.648E+02 -.470E+02   0.544E-01 0.226E+00 0.325E+00   -.120E-02 -.169E-02 0.156E-02
   -.515E+02 -.400E+02 0.467E+02   0.517E+02 0.401E+02 -.470E+02   -.223E+00 -.661E-01 0.325E+00   0.216E-02 -.270E-03 0.155E-02
   -.604E+02 0.246E+02 -.467E+02   0.606E+02 -.248E+02 0.470E+02   -.169E+00 0.160E+00 -.325E+00   0.442E-03 -.173E-02 -.195E-02
   0.515E+02 0.400E+02 -.467E+02   -.517E+02 -.401E+02 0.470E+02   0.223E+00 0.661E-01 -.325E+00   -.216E-02 0.270E-03 -.155E-02
   0.887E+01 -.646E+02 -.467E+02   -.882E+01 0.648E+02 0.470E+02   -.544E-01 -.226E+00 -.325E+00   0.120E-02 0.169E-02 -.156E-02
   -.545E+02 0.213E+02 -.488E+02   0.548E+02 -.214E+02 0.490E+02   -.296E+00 0.833E-01 -.160E+00   0.674E-03 -.229E-02 -.129E-02
   0.881E+01 -.579E+02 -.488E+02   -.888E+01 0.582E+02 0.490E+02   0.761E-01 -.298E+00 -.160E+00   0.155E-02 0.124E-02 -.171E-02
   0.457E+02 0.366E+02 -.488E+02   -.459E+02 -.368E+02 0.490E+02   0.220E+00 0.215E+00 -.160E+00   -.184E-02 0.828E-03 -.178E-02
   0.545E+02 -.213E+02 0.488E+02   -.548E+02 0.214E+02 -.490E+02   0.296E+00 -.833E-01 0.160E+00   -.674E-03 0.229E-02 0.129E-02
   -.457E+02 -.366E+02 0.488E+02   0.459E+02 0.368E+02 -.490E+02   -.220E+00 -.215E+00 0.160E+00   0.184E-02 -.828E-03 0.178E-02
   -.881E+01 0.579E+02 0.488E+02   0.888E+01 -.582E+02 -.490E+02   -.761E-01 0.298E+00 0.160E+00   -.155E-02 -.124E-02 0.171E-02
   -.457E+02 0.366E+02 -.488E+02   0.459E+02 -.368E+02 0.490E+02   -.220E+00 0.215E+00 -.160E+00   0.232E-02 0.561E-03 -.129E-02
   -.880E+01 -.579E+02 -.488E+02   0.887E+01 0.582E+02 0.490E+02   -.757E-01 -.298E+00 -.160E+00   -.164E-02 0.118E-02 -.178E-02
   0.545E+02 0.213E+02 -.488E+02   -.548E+02 -.214E+02 0.490E+02   0.296E+00 0.831E-01 -.160E+00   -.300E-03 -.196E-02 -.171E-02
   0.457E+02 -.366E+02 0.488E+02   -.459E+02 0.368E+02 -.490E+02   0.220E+00 -.215E+00 0.160E+00   -.232E-02 -.561E-03 0.129E-02
   -.545E+02 -.213E+02 0.488E+02   0.548E+02 0.214E+02 -.490E+02   -.296E+00 -.831E-01 0.160E+00   0.300E-03 0.196E-02 0.171E-02
   0.880E+01 0.579E+02 0.488E+02   -.887E+01 -.582E+02 -.490E+02   0.757E-01 0.298E+00 0.160E+00   0.164E-02 -.118E-02 0.178E-02
   -.998E-06 -.161E-05 0.626E-06   -.533E-05 -.872E-05 0.477E-05   -.339E-22 0.376E-22 0.171E-21   0.936E-10 -.703E-10 0.409E-08
   -.897E-06 -.167E-05 -.166E-06   -.489E-05 -.897E-05 -.145E-05   -.171E-21 -.377E-22 -.812E-22   -.970E-10 0.296E-10 -.170E-09
   0.682E-02 -.369E-02 -.426E+01   -.734E-02 0.397E-02 0.399E+01   0.326E-03 -.199E-03 0.273E+00   -.633E-03 0.329E-03 0.158E-02
   -.682E-02 0.368E-02 0.426E+01   0.732E-02 -.401E-02 -.399E+01   -.326E-03 0.199E-03 -.273E+00   0.633E-03 -.329E-03 -.158E-02
   0.660E-02 -.406E-02 -.426E+01   -.713E-02 0.434E-02 0.399E+01   0.335E-03 -.182E-03 0.273E+00   -.602E-03 0.384E-03 0.158E-02
   -.660E-02 0.406E-02 0.426E+01   0.711E-02 -.437E-02 -.399E+01   -.335E-03 0.182E-03 -.273E+00   0.602E-03 -.384E-03 -.158E-02
   0.477E+00 -.217E+01 -.569E-01   -.318E+00 0.209E+01 -.253E+00   -.156E+00 0.843E-01 0.304E+00   0.994E-06 0.219E-04 0.501E-04
   0.165E+01 0.150E+01 -.570E-01   -.165E+01 -.132E+01 -.253E+00   0.492E-02 -.177E+00 0.304E+00   -.174E-04 -.890E-05 0.441E-04
   -.212E+01 0.675E+00 -.570E-01   0.197E+01 -.772E+00 -.253E+00   0.151E+00 0.929E-01 0.304E+00   0.141E-04 -.122E-04 0.412E-04
   -.477E+00 0.217E+01 0.569E-01   0.318E+00 -.209E+01 0.253E+00   0.156E+00 -.843E-01 -.304E+00   -.994E-06 -.219E-04 -.501E-04
   -.165E+01 -.150E+01 0.570E-01   0.165E+01 0.132E+01 0.253E+00   -.492E-02 0.177E+00 -.304E+00   0.174E-04 0.890E-05 -.441E-04
   0.212E+01 -.675E+00 0.570E-01   -.197E+01 0.772E+00 0.253E+00   -.151E+00 -.929E-01 -.304E+00   -.141E-04 0.122E-04 -.412E-04
   -.212E+01 -.673E+00 0.569E-01   0.197E+01 0.770E+00 0.253E+00   0.151E+00 -.931E-01 -.304E+00   0.185E-04 0.118E-04 -.501E-04
   0.165E+01 -.150E+01 0.570E-01   -.165E+01 0.132E+01 0.253E+00   0.486E-02 0.177E+00 -.304E+00   -.176E-04 0.616E-05 -.412E-04
   0.475E+00 0.217E+01 0.570E-01   -.315E+00 -.209E+01 0.253E+00   -.156E+00 -.843E-01 -.304E+00   0.979E-06 -.195E-04 -.441E-04
   0.212E+01 0.673E+00 -.569E-01   -.197E+01 -.770E+00 -.253E+00   -.151E+00 0.931E-01 0.304E+00   -.185E-04 -.118E-04 0.501E-04
   -.165E+01 0.150E+01 -.570E-01   0.165E+01 -.132E+01 -.253E+00   -.486E-02 -.177E+00 0.304E+00   0.176E-04 -.616E-05 0.412E-04
   -.475E+00 -.217E+01 -.570E-01   0.315E+00 0.209E+01 -.253E+00   0.156E+00 0.843E-01 0.304E+00   -.979E-06 0.195E-04 0.441E-04
   0.443E+01 0.115E-02 0.172E-03   -.439E+01 -.119E-02 -.220E-03   -.420E-01 -.959E-04 0.230E-05   0.118E-03 -.623E-05 0.935E-06
   -.222E+01 0.384E+01 -.171E-03   0.219E+01 -.380E+01 0.222E-03   0.209E-01 -.364E-01 -.230E-05   -.642E-04 0.988E-04 -.935E-06
   -.222E+01 -.384E+01 0.161E-06   0.220E+01 0.380E+01 0.103E-05   0.211E-01 0.365E-01 0.263E-17   -.538E-04 -.932E-04 0.512E-11
   -.443E+01 -.115E-02 -.171E-03   0.439E+01 0.119E-02 0.223E-03   0.420E-01 0.959E-04 -.230E-05   -.118E-03 0.623E-05 -.935E-06
   0.222E+01 -.384E+01 0.171E-03   -.219E+01 0.380E+01 -.223E-03   -.209E-01 0.364E-01 0.230E-05   0.642E-04 -.988E-04 0.935E-06
   0.222E+01 0.384E+01 -.165E-07   -.220E+01 -.380E+01 0.392E-07   -.211E-01 -.365E-01 -.263E-17   0.538E-04 0.932E-04 -.721E-10
 -----------------------------------------------------------------------------------------------
   -.333E-04 -.576E-04 -.110E-02   -.227E-12 -.266E-14 0.266E-13   0.278E-15 0.208E-16 0.222E-15   0.370E-08 0.610E-08 0.596E-08
 
 
 POSITION                                       TOTAL-FORCE (eV/Angst)
 -----------------------------------------------------------------------------------
     -3.70472      8.57072      4.74505         0.009187     -0.012847      0.009303
      0.04746      2.23608      4.74510         0.006540      0.014347      0.009214
      3.65732      8.65292      4.74509        -0.015686     -0.001540      0.009326
      9.32231      1.15913      7.47228        -0.009187      0.012847     -0.009303
      1.96028      1.07693      7.47224         0.015686      0.001540     -0.009326
      5.57014      7.49377      7.47223        -0.006540     -0.014347     -0.009214
     -3.65725      8.65288     10.85372         0.015719     -0.001532      0.009303
     -0.04742      2.23607     10.85376        -0.006509      0.014355      0.009326
      3.70480      8.57072     10.85377        -0.009155     -0.012837      0.009214
      9.27484      1.07696      1.36362        -0.015719      0.001532     -0.009303
      1.91280      1.15913      1.36356         0.009155      0.012837     -0.009214
      5.66501      7.49377      1.36358         0.006509     -0.014355     -0.009326
     -1.91856      7.49075      1.70689        -0.005183      0.001178      0.008307
      0.08971      4.32291      1.70686         0.001427     -0.005677      0.007809
      1.82896      7.64605      1.70685         0.004169      0.004139      0.007912
      7.53616      2.23910     10.51044         0.005183     -0.001178     -0.008307
      3.78864      2.08380     10.51048        -0.004169     -0.004139     -0.007912
      5.52789      5.40693     10.51047        -0.001427      0.005677     -0.007809
     -1.82889      7.64601      7.81556        -0.003612      0.003900      0.008307
     -0.08962      4.32291      7.81552        -0.001500     -0.005680      0.007912
      1.91867      7.49072      7.81553         0.005630      0.001603      0.007809
      7.44648      2.08384      4.40177         0.003612     -0.003900     -0.008307
      3.69892      2.23913      4.40180        -0.005630     -0.001603     -0.007809
      5.70722      5.40693      4.40182         0.001500      0.005680     -0.007912
      1.83736      5.28732      4.65653         0.005199     -0.010985     -0.000720
      0.11992      8.67733      4.65651         0.007050      0.009548     -0.001124
     -1.95717      5.49501      4.65653        -0.011742      0.001349     -0.001250
      3.78024      4.44253      7.56080        -0.005199      0.010985      0.000720
      7.57476      4.23483      7.56080         0.011742     -0.001349      0.001250
      5.49767      1.05251      7.56083        -0.007050     -0.009548      0.001124
      1.95730      5.49500     10.76520         0.012113      0.000990     -0.000720
     -0.11983      8.67731     10.76520        -0.007039      0.009494     -0.001250
     -1.83726      5.28734     10.76517        -0.004744     -0.010879     -0.001124
      3.66029      4.23484      1.45213        -0.012113     -0.000990      0.000720
      7.45485      4.44251      1.45216         0.004744      0.010879      0.001124
      5.73743      1.05254      1.45214         0.007039     -0.009494      0.001250
      0.00000      0.00000     -0.00000        -0.000000      0.000000     -0.000000
      0.00003     -0.00001      6.10867        -0.000000      0.000000     -0.000000
      0.00009      6.48653      3.18826        -0.000821      0.000435      0.011021
      5.61751      3.24332      9.02907         0.000821     -0.000435     -0.011021
      0.00011      6.48652      9.29693        -0.000787      0.000493      0.011021
      5.61748      3.24332      2.92041         0.000787     -0.000493     -0.011021
      2.05963      3.22608     11.85860         0.003270      0.001774     -0.005370
      7.41150      0.17054     11.85864        -0.003332      0.002064     -0.005436
      7.38163      6.33318     11.85862         0.000021     -0.003832     -0.005365
      3.55797      6.50377      0.35874        -0.003270     -0.001774      0.005370
     -1.79390      9.55930      0.35869         0.003332     -0.002064      0.005436
     -1.76404      3.39667      0.35871        -0.000021      0.003832      0.005365
      1.76413      3.39669      6.46740        -0.000099      0.003719      0.005370
      1.79395      9.55923      6.46738        -0.003329     -0.001898      0.005365
     -3.55798      6.50378      6.46736         0.003454     -0.001854      0.005436
      3.85347      6.33316      5.74993         0.000099     -0.003719     -0.005370
      3.82365      0.17062      5.74995         0.003329      0.001898     -0.005365
      9.17557      3.22607      5.74997        -0.003454      0.001854     -0.005436
      3.63725      0.00002      9.16302         0.000928     -0.000144     -0.000047
     -1.81853      3.14991      9.16298        -0.000588      0.000732      0.000047
      3.79894      6.57987      9.16300        -0.000377     -0.000654     -0.000000
      1.98035      9.72983      3.05431        -0.000928      0.000144      0.000047
      7.43613      6.57993      3.05435         0.000588     -0.000732     -0.000047
      1.81866      3.14997      3.05433         0.000377      0.000654     -0.000000
 -----------------------------------------------------------------------------------
    total drift:                               -0.000033     -0.000058     -0.001098


--------------------------------------------------------------------------------------------------------



  FREE ENERGIE OF THE ION-ELECTRON SYSTEM (eV)
  ---------------------------------------------------
  free  energy   TOTEN  =      -246.94787141 eV

  energy  without entropy=     -246.94787141  energy(sigma->0) =     -246.94787141
 
 d Force = 0.5420714E-03[ 0.550E-03, 0.534E-03]  d Energy = 0.4973082E-03 0.448E-04
 d Force =-0.2294392E+00[-0.231E+00,-0.228E+00]  d Ewald  =-0.2294395E+00 0.308E-06


--------------------------------------------------------------------------------------------------------


    POTLOK:  cpu time      0.0855: real time      0.0858


--------------------------------------------------------------------------------------------------------


 Conjugate gradient step on ions:
 trial-energy change:   -0.000497  1 .order   -0.000542   -0.000534   -0.000550
  (g-gl).g = 0.405E-03      g.g   = 0.399E-03  gl.gl    = 0.222E-02
 g(Force)  = 0.399E-03   g(Stress)= 0.000E+00 ortho     =-0.605E-05
 gamma     =   0.18247
 trial     =   1.34103
 opt step  =   5.36410  (harmonic =   5.36410) maximal distance =0.00376480
 next E    =  -246.949642   (d E  =  -0.00227)


--------------------------------------------------------------------------------------------------------


    WAVPRE:  cpu time      0.0313: real time      0.0449
    FEWALD:  cpu time      0.0009: real time      0.0009
    ORTHCH:  cpu time      0.3561: real time      0.3576
     LOOP+:  cpu time     22.1367: real time     22.4213


--------------------------------------- Ionic step        5  -------------------------------------------




--------------------------------------- Iteration      5(   1)  ---------------------------------------


    POTLOK:  cpu time      0.0767: real time      0.0832
    SETDIJ:  cpu time      0.0071: real time      0.0075
     EDDAV:  cpu time      3.1144: real time      3.1257
       DOS:  cpu time      0.0004: real time      0.0004
    CHARGE:  cpu time      0.1510: real time      0.1515
    MIXING:  cpu time      0.0021: real time      0.0021
    --------------------------------------------
      LOOP:  cpu time      3.3517: real time      3.3703

 eigenvalue-minimisations  :   672
 total energy-change (2. order) : 0.2415826E-02  (-0.6047325E-01)
 number of electron     324.0000003 magnetization 
 augmentation part      -11.6096765 magnetization 

 Broyden mixing:
  rms(total) = 0.33038E-01    rms(broyden)= 0.33037E-01
  rms(prec ) = 0.33895E-01
  weight for this iteration     100.00

 Free energy of the ion-electron system (eV)
  ---------------------------------------------------
  alpha Z        PSCENC =       542.72806157
  Ewald energy   TEWEN  =    -14339.71396564
  -Hartree energ DENC   =     -4172.25963565
  -exchange      EXHF   =         0.00000000
  -V(xc)+E(xc)   XCENC  =       616.82657295
  PAW double counting   =     22640.00493607   -22289.15642342
  entropy T*S    EENTRO =        -0.00000000
  eigenvalues    EBANDS =     -2128.43193635
  atomic energy  EATOM  =     18883.05693546
  Solvation  Ediel_sol  =         0.00000000
  ---------------------------------------------------
  free energy    TOTEN  =      -246.94545502 eV

  energy without entropy =     -246.94545502  energy(sigma->0) =     -246.94545502


--------------------------------------------------------------------------------------------------------




--------------------------------------- Iteration      5(   2)  ---------------------------------------


    POTLOK:  cpu time      0.0898: real time      0.1239
    SETDIJ:  cpu time      0.0070: real time      0.0074
     EDDAV:  cpu time      3.1281: real time      3.1409
       DOS:  cpu time      0.0002: real time      0.0002
    CHARGE:  cpu time      0.1506: real time      0.1514
    MIXING:  cpu time      0.0022: real time      0.0022
    --------------------------------------------
      LOOP:  cpu time      3.3780: real time      3.4260

 eigenvalue-minimisations  :   672
 total energy-change (2. order) :-0.3289137E-02  (-0.3489857E-02)
 number of electron     324.0000003 magnetization 
 augmentation part      -11.6099974 magnetization 

 Broyden mixing:
  rms(total) = 0.10296E-01    rms(broyden)= 0.10293E-01
  rms(prec ) = 0.11037E-01
  weight for this iteration     100.00

 eigenvalues of (default mixing * dielectric matrix)
  average eigenvalue GAMMA=   0.8974
  0.8974

 Free energy of the ion-electron system (eV)
  ---------------------------------------------------
  alpha Z        PSCENC =       542.72806157
  Ewald energy   TEWEN  =    -14339.71396564
  -Hartree energ DENC   =     -4172.19009639
  -exchange      EXHF   =         0.00000000
  -V(xc)+E(xc)   XCENC  =       616.82482480
  PAW double counting   =     22640.19197144   -22289.34532083
  entropy T*S    EENTRO =        -0.00000000
  eigenvalues    EBANDS =     -2128.50115456
  atomic energy  EATOM  =     18883.05693546
  Solvation  Ediel_sol  =         0.00000000
  ---------------------------------------------------
  free energy    TOTEN  =      -246.94874415 eV

  energy without entropy =     -246.94874415  energy(sigma->0) =     -246.94874415


--------------------------------------------------------------------------------------------------------




--------------------------------------- Iteration      5(   3)  ---------------------------------------


    POTLOK:  cpu time      0.1215: real time      0.1221
    SETDIJ:  cpu time      0.0069: real time      0.0069
     EDDAV:  cpu time      4.0647: real time      4.0794
       DOS:  cpu time      0.0002: real time      0.0002
    CHARGE:  cpu time      0.1515: real time      0.1520
    MIXING:  cpu time      0.0021: real time      0.0021
    --------------------------------------------
      LOOP:  cpu time      4.3468: real time      4.3626

 eigenvalue-minimisations  :   912
 total energy-change (2. order) :-0.1075374E-03  (-0.1681001E-03)
 number of electron     324.0000003 magnetization 
 augmentation part      -11.6096003 magnetization 

 Broyden mixing:
  rms(total) = 0.94250E-02    rms(broyden)= 0.94247E-02
  rms(prec ) = 0.99706E-02
  weight for this iteration     100.00

 eigenvalues of (default mixing * dielectric matrix)
  average eigenvalue GAMMA=   1.2826
  1.2826  1.2826

 Free energy of the ion-electron system (eV)
  ---------------------------------------------------
  alpha Z        PSCENC =       542.72806157
  Ewald energy   TEWEN  =    -14339.71396564
  -Hartree energ DENC   =     -4172.17267047
  -exchange      EXHF   =         0.00000000
  -V(xc)+E(xc)   XCENC  =       616.82447272
  PAW double counting   =     22640.09923752   -22289.25391837
  entropy T*S    EENTRO =        -0.00000000
  eigenvalues    EBANDS =     -2128.51700448
  atomic energy  EATOM  =     18883.05693546
  Solvation  Ediel_sol  =         0.00000000
  ---------------------------------------------------
  free energy    TOTEN  =      -246.94885169 eV

  energy without entropy =     -246.94885169  energy(sigma->0) =     -246.94885169


--------------------------------------------------------------------------------------------------------




--------------------------------------- Iteration      5(   4)  ---------------------------------------


    POTLOK:  cpu time      0.0960: real time      0.1169
    SETDIJ:  cpu time      0.0070: real time      0.0070
     EDDAV:  cpu time      3.8710: real time      3.8848
       DOS:  cpu time      0.0002: real time      0.0002
    CHARGE:  cpu time      0.1512: real time      0.1516
    MIXING:  cpu time      0.0021: real time      0.0021
    --------------------------------------------
      LOOP:  cpu time      4.1275: real time      4.1626

 eigenvalue-minimisations  :   864
 total energy-change (2. order) : 0.5119831E-04  (-0.1290917E-04)
 number of electron     324.0000003 magnetization 
 augmentation part      -11.6094663 magnetization 

 Broyden mixing:
  rms(total) = 0.63806E-02    rms(broyden)= 0.63806E-02
  rms(prec ) = 0.65049E-02
  weight for this iteration     100.00

 eigenvalues of (default mixing * dielectric matrix)
  average eigenvalue GAMMA=   1.7920
  3.1533  0.8949  1.3278

 Free energy of the ion-electron system (eV)
  ---------------------------------------------------
  alpha Z        PSCENC =       542.72806157
  Ewald energy   TEWEN  =    -14339.71396564
  -Hartree energ DENC   =     -4172.17598224
  -exchange      EXHF   =         0.00000000
  -V(xc)+E(xc)   XCENC  =       616.82444589
  PAW double counting   =     22639.09006611   -22288.24483065
  entropy T*S    EENTRO =        -0.00000000
  eigenvalues    EBANDS =     -2128.51353097
  atomic energy  EATOM  =     18883.05693546
  Solvation  Ediel_sol  =         0.00000000
  ---------------------------------------------------
  free energy    TOTEN  =      -246.94880049 eV

  energy without entropy =     -246.94880049  energy(sigma->0) =     -246.94880049


--------------------------------------------------------------------------------------------------------




--------------------------------------- Iteration      5(   5)  ---------------------------------------


    POTLOK:  cpu time      0.0764: real time      0.1236
    SETDIJ:  cpu time      0.0069: real time      0.0070
     EDDAV:  cpu time      3.4952: real time      3.5084
       DOS:  cpu time      0.0002: real time      0.0002
    CHARGE:  cpu time      0.1511: real time      0.1515
    MIXING:  cpu time      0.0021: real time      0.0021
    --------------------------------------------
      LOOP:  cpu time      3.7319: real time      3.7928

 eigenvalue-minimisations  :   768
 total energy-change (2. order) :-0.7002709E-06  (-0.8585527E-05)
 number of electron     324.0000003 magnetization 
 augmentation part      -11.6094466 magnetization 

 Broyden mixing:
  rms(total) = 0.28301E-02    rms(broyden)= 0.28301E-02
  rms(prec ) = 0.29325E-02
  weight for this iteration     100.00

 eigenvalues of (default mixing * dielectric matrix)
  average eigenvalue GAMMA=   2.1356
  4.7335  0.9677  1.4206  1.4206

 Free energy of the ion-electron system (eV)
  ---------------------------------------------------
  alpha Z        PSCENC =       542.72806157
  Ewald energy   TEWEN  =    -14339.71396564
  -Hartree energ DENC   =     -4172.18515712
  -exchange      EXHF   =         0.00000000
  -V(xc)+E(xc)   XCENC  =       616.82433350
  PAW double counting   =     22638.04453413   -22287.19904407
  entropy T*S    EENTRO =        -0.00000000
  eigenvalues    EBANDS =     -2128.50449902
  atomic energy  EATOM  =     18883.05693546
  Solvation  Ediel_sol  =         0.00000000
  ---------------------------------------------------
  free energy    TOTEN  =      -246.94880119 eV

  energy without entropy =     -246.94880119  energy(sigma->0) =     -246.94880119


--------------------------------------------------------------------------------------------------------




--------------------------------------- Iteration      5(   6)  ---------------------------------------


    POTLOK:  cpu time      0.0769: real time      0.1046
    SETDIJ:  cpu time      0.0071: real time      0.0071
     EDDAV:  cpu time      2.0345: real time      2.0423
       DOS:  cpu time      0.0002: real time      0.0002
    --------------------------------------------
      LOOP:  cpu time      2.1186: real time      2.1541

 eigenvalue-minimisations  :   384
 total energy-change (2. order) : 0.1688022E-06  (-0.6774852E-06)
 number of electron     324.0000003 magnetization 
 augmentation part      -11.6094466 magnetization 

 Free energy of the ion-electron system (eV)
  ---------------------------------------------------
  alpha Z        PSCENC =       542.72806157
  Ewald energy   TEWEN  =    -14339.71396564
  -Hartree energ DENC   =     -4172.18989381
  -exchange      EXHF   =         0.00000000
  -V(xc)+E(xc)   XCENC  =       616.82425045
  PAW double counting   =     22637.40410730   -22286.55854673
  entropy T*S    EENTRO =        -0.00000000
  eigenvalues    EBANDS =     -2128.49974961
  atomic energy  EATOM  =     18883.05693546
  Solvation  Ediel_sol  =         0.00000000
  ---------------------------------------------------
  free energy    TOTEN  =      -246.94880102 eV

  energy without entropy =     -246.94880102  energy(sigma->0) =     -246.94880102


--------------------------------------------------------------------------------------------------------




 average (electrostatic) potential at core
  the test charge radii are     0.9406  1.3020  0.9748
  (the norm of the test charge is              1.0000)
       1 -93.6325       2 -93.6318       3 -93.6320       4 -93.6325       5 -93.6320
       6 -93.6318       7 -93.6325       8 -93.6320       9 -93.6318      10 -93.6325
      11 -93.6318      12 -93.6320      13 -93.5405      14 -93.5370      15 -93.5372
      16 -93.5405      17 -93.5372      18 -93.5370      19 -93.5405      20 -93.5372
      21 -93.5370      22 -93.5405      23 -93.5370      24 -93.5372      25 -93.5828
      26 -93.5867      27 -93.5868      28 -93.5828      29 -93.5868      30 -93.5867
      31 -93.5828      32 -93.5868      33 -93.5867      34 -93.5828      35 -93.5867
      36 -93.5868      37 -36.1474      38 -36.1474      39 -36.2259      40 -36.2259
      41 -36.2259      42 -36.2259      43 -28.4439      44 -28.4469      45 -28.4463
      46 -28.4439      47 -28.4469      48 -28.4463      49 -28.4439      50 -28.4463
      51 -28.4469      52 -28.4439      53 -28.4463      54 -28.4469      55 -28.3175
      56 -28.3175      57 -28.3152      58 -28.3175      59 -28.3175      60 -28.3152
 
 
 
 E-fermi :   0.0749     XC(G=0):  -8.2166     alpha+bet : -8.3650

 Fermi energy:         0.0748966969

 k-point     1 :       0.0000    0.0000    0.0000
  band No.  band energies     occupation 
      1     -23.1492      2.00000
      2     -23.1492      2.00000
      3     -23.1491      2.00000
      4     -23.1491      2.00000
      5     -23.1489      2.00000
      6     -23.1488      2.00000
      7     -23.1488      2.00000
      8     -23.1488      2.00000
      9     -23.1358      2.00000
     10     -23.1357      2.00000
     11     -23.1354      2.00000
     12     -23.1352      2.00000
     13     -23.1135      2.00000
     14     -23.1132      2.00000
     15     -23.0876      2.00000
     16     -23.0876      2.00000
     17     -23.0875      2.00000
     18     -23.0875      2.00000
     19     -13.6701      2.00000
     20     -13.4775      2.00000
     21     -13.4170      2.00000
     22     -13.3621      2.00000
     23     -13.3203      2.00000
     24     -13.2831      2.00000
     25     -13.2820      2.00000
     26     -13.2623      2.00000
     27     -13.2611      2.00000
     28     -13.2420      2.00000
     29     -13.2367      2.00000
     30     -13.2358      2.00000
     31     -13.1807      2.00000
     32     -13.1802      2.00000
     33     -13.1670      2.00000
     34     -13.1670      2.00000
     35     -13.1388      2.00000
     36     -13.1378      2.00000
     37     -13.1283      2.00000
     38     -13.0665      2.00000
     39     -13.0631      2.00000
     40     -13.0619      2.00000
     41     -13.0548      2.00000
     42     -13.0533      2.00000
     43     -13.0477      2.00000
     44     -13.0473      2.00000
     45     -13.0460      2.00000
     46     -13.0453      2.00000
     47     -13.0374      2.00000
     48     -12.9839      2.00000
     49     -12.9763      2.00000
     50     -12.9757      2.00000
     51     -12.9305      2.00000
     52     -12.9301      2.00000
     53     -12.9287      2.00000
     54     -12.9068      2.00000
     55      -3.2170      2.00000
     56      -3.0086      2.00000
     57      -2.9194      2.00000
     58      -2.9056      2.00000
     59      -2.9048      2.00000
     60      -2.8908      2.00000
     61      -2.8051      2.00000
     62      -2.8041      2.00000
     63      -2.7918      2.00000
     64      -2.7908      2.00000
     65      -2.6763      2.00000
     66      -2.6754      2.00000
     67      -2.6603      2.00000
     68      -2.6594      2.00000
     69      -2.5726      2.00000
     70      -2.5717      2.00000
     71      -2.5330      2.00000
     72      -2.5330      2.00000
     73      -2.5277      2.00000
     74      -2.5267      2.00000
     75      -2.4753      2.00000
     76      -2.4753      2.00000
     77      -2.4400      2.00000
     78      -2.4368      2.00000
     79      -2.4366      2.00000
     80      -2.3628      2.00000
     81      -2.3416      2.00000
     82      -2.3413      2.00000
     83      -2.2747      2.00000
     84      -2.2742      2.00000
     85      -2.2063      2.00000
     86      -2.1997      2.00000
     87      -2.1448      2.00000
     88      -2.1432      2.00000
     89      -2.1423      2.00000
     90      -2.0656      2.00000
     91      -2.0549      2.00000
     92      -2.0545      2.00000
     93      -2.0527      2.00000
     94      -1.8958      2.00000
     95      -1.8562      2.00000
     96      -1.8542      2.00000
     97      -1.7833      2.00000
     98      -1.7779      2.00000
     99      -1.7776      2.00000
    100      -1.7677      2.00000
    101      -1.7661      2.00000
    102      -1.7583      2.00000
    103      -1.7302      2.00000
    104      -1.7282      2.00000
    105      -1.7277      2.00000
    106      -1.6098      2.00000
    107      -1.6095      2.00000
    108      -1.5373      2.00000
    109      -1.5087      2.00000
    110      -1.5073      2.00000
    111      -1.4867      2.00000
    112      -1.4861      2.00000
    113      -1.4839      2.00000
    114      -1.4829      2.00000
    115      -1.3889      2.00000
    116      -1.3886      2.00000
    117      -1.2970      2.00000
    118      -1.2524      2.00000
    119      -1.2507      2.00000
    120      -1.2450      2.00000
    121      -1.1320      2.00000
    122      -1.1310      2.00000
    123      -1.0721      2.00000
    124      -1.0684      2.00000
    125      -1.0622      2.00000
    126      -1.0621      2.00000
    127      -1.0376      2.00000
    128      -1.0375      2.00000
    129      -1.0249      2.00000
    130      -1.0243      2.00000
    131      -1.0240      2.00000
    132      -0.9918      2.00000
    133      -0.9914      2.00000
    134      -0.9908      2.00000
    135      -0.9906      2.00000
    136      -0.9452      2.00000
    137      -0.9163      2.00000
    138      -0.8798      2.00000
    139      -0.8790      2.00000
    140      -0.8765      2.00000
    141      -0.8177      2.00000
    142      -0.8174      2.00000
    143      -0.7865      2.00000
    144      -0.7863      2.00000
    145      -0.7677      2.00000
    146      -0.7650      2.00000
    147      -0.6905      2.00000
    148      -0.6462      2.00000
    149      -0.6451      2.00000
    150      -0.6275      2.00000
    151      -0.6270      2.00000
    152      -0.6130      2.00000
    153      -0.6127      2.00000
    154      -0.5781      2.00000
    155      -0.5457      2.00000
    156      -0.5342      2.00000
    157      -0.5330      2.00000
    158      -0.4601      2.00000
    159      -0.4593      2.00000
    160      -0.4591      2.00000
    161      -0.4585      2.00000
    162      -0.4105      2.00000
    163       4.9105      0.00000
    164       4.9275      0.00000
    165       4.9276      0.00000
    166       4.9719      0.00000
    167       4.9721      0.00000
    168       5.0285      0.00000
    169       5.0575      0.00000
    170       5.0575      0.00000
    171       5.0685      0.00000
    172       5.0685      0.00000
    173       5.1276      0.00000
    174       5.1277      0.00000
    175       5.1861      0.00000
    176       5.2456      0.00000
    177       5.2631      0.00000
    178       5.2751      0.00000
    179       5.3331      0.00000
    180       5.3332      0.00000
    181       5.7073      0.00000
    182       6.7340      0.00000
    183       6.7341      0.00000
    184       6.8599      0.00000
    185       6.9694      0.00000
    186       6.9698      0.00000
    187       6.9987      0.00000
    188       6.9988      0.00000
    189       7.0964      0.00000
    190       7.1723      0.00000
    191       7.2067      0.00000
    192       7.2069      0.00000
    193       7.2422      0.00000
    194       7.2423      0.00000
    195       7.2546      0.00000
    196       7.2550      0.00000
    197       7.3012      0.00000
    198       7.4035      0.00000
    199       7.4864      0.00000
    200       7.4919      0.00000
    201       7.7310      0.00000
    202       7.7311      0.00000
    203       7.7591      0.00000
    204       7.7592      0.00000
    205       7.9137      0.00000
    206       7.9318      0.00000
    207       7.9610      0.00000
    208       7.9625      0.00000
    209       8.1357      0.00000
    210       8.1368      0.00000
    211       8.2322      0.00000
    212       8.2332      0.00000
    213       8.3347      0.00000
    214       8.3351      0.00000
    215       8.3647      0.00000
    216       8.3792      0.00000
    217       8.5775      0.00000
    218       8.5775      0.00000
    219       8.6444      0.00000
    220       8.6941      0.00000
    221       8.6947      0.00000
    222       8.7094      0.00000
    223       8.7108      0.00000
    224       8.8843      0.00000
    225       8.8850      0.00000
    226       9.2000      0.00000
    227       9.2248      0.00000
    228       9.2256      0.00000
    229       9.2355      0.00000
    230       9.2418      0.00000
    231       9.2701      0.00000
    232       9.2714      0.00000
    233       9.2831      0.00000
    234       9.4270      0.00000
    235       9.4275      0.00000
    236       9.4833      0.00000
    237       9.4837      0.00000
    238       9.4918      0.00000
    239       9.6567      0.00000
    240       9.7665      0.00000


--------------------------------------------------------------------------------------------------------


 soft charge-density along one line, spin component           1
         0         1         2         3         4         5         6         7         8         9
 total charge-density along one line
 
 pseudopotential strength for first ion, spin component:           1
 47.758  50.124   0.002   0.010  -0.007   0.002   0.013  -0.009
 50.124  52.611   0.002   0.011  -0.008   0.003   0.013  -0.009
  0.002   0.002   9.147   0.002  -0.001  11.343   0.002  -0.001
  0.010   0.011   0.002   9.146  -0.001   0.002  11.343  -0.001
 -0.007  -0.008  -0.001  -0.001   9.147  -0.001  -0.001  11.344
  0.002   0.003  11.343   0.002  -0.001  14.083   0.002  -0.001
  0.013   0.013   0.002  11.343  -0.001   0.002  14.083  -0.002
 -0.009  -0.009  -0.001  -0.001  11.344  -0.001  -0.002  14.084
 total augmentation occupancy for first ion, spin component:           1
  2.221  -1.300  -0.268  -1.087   0.760   0.080   0.334  -0.223
 -1.300   2.202   0.272   1.075  -0.755  -0.097  -0.383   0.260
 -0.268   0.272   3.553   0.267  -0.138  -0.882  -0.159   0.085
 -1.087   1.075   0.267   3.465  -0.178  -0.159  -0.830   0.110
  0.760  -0.755  -0.138  -0.178   3.624   0.085   0.110  -0.919
  0.080  -0.097  -0.882  -0.159   0.085   0.258   0.068  -0.041
  0.334  -0.383  -0.159  -0.830   0.110   0.068   0.239  -0.055
 -0.223   0.260   0.085   0.110  -0.919  -0.041  -0.055   0.271


------------------------ aborting loop because EDIFF is reached ----------------------------------------





 total charge

# of ion       s       p       d       tot
------------------------------------------
    1        1.592   3.581   0.000   5.174
    2        1.592   3.581   0.000   5.174
    3        1.592   3.581   0.000   5.174
    4        1.592   3.581   0.000   5.174
    5        1.592   3.581   0.000   5.174
    6        1.592   3.581   0.000   5.174
    7        1.592   3.581   0.000   5.174
    8        1.592   3.581   0.000   5.174
    9        1.592   3.581   0.000   5.174
   10        1.592   3.581   0.000   5.174
   11        1.592   3.581   0.000   5.174
   12        1.592   3.581   0.000   5.174
   13        1.591   3.586   0.000   5.178
   14        1.591   3.586   0.000   5.177
   15        1.591   3.586   0.000   5.177
   16        1.591   3.586   0.000   5.178
   17        1.591   3.586   0.000   5.177
   18        1.591   3.586   0.000   5.177
   19        1.591   3.586   0.000   5.178
   20        1.591   3.586   0.000   5.177
   21        1.591   3.586   0.000   5.177
   22        1.591   3.586   0.000   5.178
   23        1.591   3.586   0.000   5.177
   24        1.591   3.586   0.000   5.177
   25        1.591   3.585   0.000   5.175
   26        1.591   3.585   0.000   5.176
   27        1.591   3.585   0.000   5.176
   28        1.591   3.585   0.000   5.175
   29        1.591   3.585   0.000   5.176
   30        1.591   3.585   0.000   5.176
   31        1.591   3.585   0.000   5.175
   32        1.591   3.585   0.000   5.176
   33        1.591   3.585   0.000   5.176
   34        1.591   3.585   0.000   5.175
   35        1.591   3.585   0.000   5.176
   36        1.591   3.585   0.000   5.176
   37        0.349   6.831   1.054   8.234
   38        0.349   6.831   1.054   8.234
   39        0.339   6.793   1.020   8.151
   40        0.339   6.793   1.020   8.151
   41        0.339   6.793   1.020   8.151
   42        0.339   6.793   1.020   8.151
   43        0.055   0.100   0.000   0.154
   44        0.055   0.100   0.000   0.154
   45        0.055   0.100   0.000   0.154
   46        0.055   0.100   0.000   0.154
   47        0.055   0.100   0.000   0.154
   48        0.055   0.100   0.000   0.154
   49        0.055   0.100   0.000   0.154
   50        0.055   0.100   0.000   0.154
   51        0.055   0.100   0.000   0.154
   52        0.055   0.100   0.000   0.154
   53        0.055   0.100   0.000   0.154
   54        0.055   0.100   0.000   0.154
   55        0.057   0.107   0.000   0.165
   56        0.057   0.107   0.000   0.165
   57        0.057   0.107   0.000   0.165
   58        0.057   0.107   0.000   0.165
   59        0.057   0.107   0.000   0.165
   60        0.057   0.107   0.000   0.165
--------------------------------------------------
tot         60.342 171.702   6.187 238.231
 
    CHARGE:  cpu time      0.1478: real time      0.1482
    FORLOC:  cpu time      0.0194: real time      0.0197
    FORNL :  cpu time      0.5179: real time      0.5196
    STRESS:  cpu time      2.8932: real time      2.9047
    FORCOR:  cpu time      0.0846: real time      0.0849
    FORHAR:  cpu time      0.0329: real time      0.0330
    MIXING:  cpu time      0.0028: real time      0.0028
    OFIELD:  cpu time      0.0000: real time      0.0000

  FORCE on cell =-STRESS in cart. coord.  units (eV):
  Direction    XX          YY          ZZ          XY          YZ          ZX
  --------------------------------------------------------------------------------------
  Alpha Z   542.72806   542.72806   542.72806
  Ewald   -4566.65018 -4566.63273 -5206.50176     0.01511     0.05562    -0.09634
  Hartree  1501.12432  1501.14294  1169.91197     0.01613     0.03764    -0.06520
  E(xc)   -1203.78628 -1203.78624 -1203.92134     0.00003     0.00011    -0.00020
  Local   -3236.91002 -3236.94598 -2278.70695    -0.03114    -0.09110     0.15780
  n-local  2920.38870  2920.38804  2912.50070    -0.00060    -0.00026     0.00046
  augment  -563.02264  -563.02289  -564.02852    -0.00022    -0.00017     0.00030
  Kinetic  4608.47808  4608.47739  4627.79432    -0.00059    -0.00127     0.00219
  Fock        0.00000     0.00000     0.00000     0.00000     0.00000     0.00000
  -------------------------------------------------------------------------------------
  Total       2.35006     2.34857    -0.22352    -0.00129     0.00057    -0.00100
  in kB       2.81922     2.81744    -0.26814    -0.00155     0.00069    -0.00119
  external pressure =        1.79 kB  Pullay stress =        0.00 kB


 VOLUME and BASIS-vectors are now :
 -----------------------------------------------------------------------------
  energy-cutoff  :      520.00
  volume of cell :     1335.55
      direct lattice vectors                 reciprocal lattice vectors
    11.235081330  0.000005465  0.000050225     0.089006896  0.051388098 -0.000000246
    -5.617535933  9.729868578 -0.000050225    -0.000000050  0.102776282  0.000000246
     0.000050679 -0.000029260 12.217332919    -0.000000366  0.000000211  0.081850925

  length of vectors
    11.235081331 11.235081331 12.217332919     0.102776282  0.102776282  0.081850925


 FORCES acting on ions
    electron-ion (+dipol)            ewald-force                    non-local-force                 convergence-correction
 -----------------------------------------------------------------------------------------------
   -.491E+02 0.184E+02 0.615E+02   0.495E+02 -.183E+02 -.621E+02   -.414E+00 -.553E-01 0.684E+00   0.215E-02 -.447E-02 0.615E-02
   0.866E+01 -.517E+02 0.615E+02   -.892E+01 0.520E+02 -.622E+02   0.253E+00 -.333E+00 0.684E+00   0.282E-02 0.414E-02 0.618E-02
   0.405E+02 0.333E+02 0.615E+02   -.406E+02 -.337E+02 -.622E+02   0.160E+00 0.388E+00 0.684E+00   -.491E-02 0.291E-03 0.619E-02
   0.491E+02 -.184E+02 -.615E+02   -.495E+02 0.183E+02 0.621E+02   0.414E+00 0.553E-01 -.684E+00   -.215E-02 0.447E-02 -.615E-02
   -.405E+02 -.333E+02 -.615E+02   0.406E+02 0.337E+02 0.622E+02   -.160E+00 -.388E+00 -.684E+00   0.491E-02 -.291E-03 -.619E-02
   -.866E+01 0.517E+02 -.615E+02   0.892E+01 -.520E+02 0.622E+02   -.253E+00 0.333E+00 -.684E+00   -.282E-02 -.414E-02 -.618E-02
   -.404E+02 0.333E+02 0.615E+02   0.406E+02 -.337E+02 -.621E+02   -.159E+00 0.386E+00 0.684E+00   0.495E-02 0.369E-03 0.615E-02
   -.865E+01 -.517E+02 0.615E+02   0.891E+01 0.520E+02 -.622E+02   -.257E+00 -.332E+00 0.684E+00   -.271E-02 0.411E-02 0.619E-02
   0.491E+02 0.184E+02 0.615E+02   -.495E+02 -.183E+02 -.622E+02   0.415E+00 -.532E-01 0.684E+00   -.217E-02 -.451E-02 0.618E-02
   0.404E+02 -.333E+02 -.615E+02   -.406E+02 0.337E+02 0.621E+02   0.159E+00 -.386E+00 -.684E+00   -.495E-02 -.369E-03 -.615E-02
   -.491E+02 -.184E+02 -.615E+02   0.495E+02 0.183E+02 0.622E+02   -.415E+00 0.532E-01 -.684E+00   0.217E-02 0.451E-02 -.618E-02
   0.865E+01 0.517E+02 -.615E+02   -.891E+01 -.520E+02 0.622E+02   0.257E+00 0.332E+00 -.684E+00   0.271E-02 -.411E-02 -.619E-02
   0.514E+02 -.401E+02 0.469E+02   -.516E+02 0.402E+02 -.472E+02   0.231E+00 -.636E-01 0.325E+00   -.310E-02 -.738E-03 0.528E-02
   0.901E+01 0.644E+02 0.468E+02   -.896E+01 -.647E+02 -.471E+02   -.626E-01 0.237E+00 0.329E+00   0.223E-02 -.351E-02 0.451E-02
   -.603E+02 -.244E+02 0.468E+02   0.605E+02 0.246E+02 -.471E+02   -.175E+00 -.169E+00 0.329E+00   0.196E-02 0.354E-02 0.451E-02
   -.514E+02 0.401E+02 -.469E+02   0.516E+02 -.402E+02 0.472E+02   -.231E+00 0.636E-01 -.325E+00   0.310E-02 0.738E-03 -.528E-02
   0.603E+02 0.244E+02 -.468E+02   -.605E+02 -.246E+02 0.471E+02   0.175E+00 0.169E+00 -.329E+00   -.196E-02 -.354E-02 -.451E-02
   -.901E+01 -.644E+02 -.468E+02   0.896E+01 0.647E+02 0.471E+02   0.626E-01 -.237E+00 -.329E+00   -.223E-02 0.351E-02 -.451E-02
   0.604E+02 -.245E+02 0.469E+02   -.606E+02 0.246E+02 -.472E+02   0.170E+00 -.168E+00 0.325E+00   -.912E-03 0.306E-02 0.528E-02
   -.904E+01 0.644E+02 0.468E+02   0.899E+01 -.647E+02 -.471E+02   0.584E-01 0.236E+00 0.329E+00   -.209E-02 -.347E-02 0.451E-02
   -.513E+02 -.400E+02 0.468E+02   0.515E+02 0.401E+02 -.471E+02   -.236E+00 -.642E-01 0.329E+00   0.416E-02 -.171E-03 0.451E-02
   -.604E+02 0.245E+02 -.469E+02   0.606E+02 -.246E+02 0.472E+02   -.170E+00 0.168E+00 -.325E+00   0.912E-03 -.306E-02 -.528E-02
   0.513E+02 0.400E+02 -.468E+02   -.515E+02 -.401E+02 0.471E+02   0.236E+00 0.642E-01 -.329E+00   -.416E-02 0.171E-03 -.451E-02
   0.904E+01 -.644E+02 -.468E+02   -.899E+01 0.647E+02 0.471E+02   -.584E-01 -.236E+00 -.329E+00   0.209E-02 0.347E-02 -.451E-02
   -.545E+02 0.211E+02 -.489E+02   0.548E+02 -.212E+02 0.491E+02   -.300E+00 0.932E-01 -.153E+00   0.131E-02 -.534E-02 -.225E-02
   0.889E+01 -.578E+02 -.490E+02   -.897E+01 0.581E+02 0.492E+02   0.687E-01 -.300E+00 -.150E+00   0.390E-02 0.267E-02 -.302E-02
   0.456E+02 0.367E+02 -.490E+02   -.458E+02 -.369E+02 0.492E+02   0.225E+00 0.211E+00 -.149E+00   -.421E-02 0.207E-02 -.309E-02
   0.545E+02 -.211E+02 0.489E+02   -.548E+02 0.212E+02 -.491E+02   0.300E+00 -.932E-01 0.153E+00   -.131E-02 0.534E-02 0.225E-02
   -.456E+02 -.367E+02 0.490E+02   0.458E+02 0.369E+02 -.492E+02   -.225E+00 -.211E+00 0.149E+00   0.421E-02 -.207E-02 0.309E-02
   -.889E+01 0.578E+02 0.490E+02   0.897E+01 -.581E+02 -.492E+02   -.687E-01 0.300E+00 0.150E+00   -.390E-02 -.267E-02 0.302E-02
   -.455E+02 0.366E+02 -.489E+02   0.458E+02 -.368E+02 0.491E+02   -.231E+00 0.213E+00 -.153E+00   0.528E-02 0.154E-02 -.225E-02
   -.894E+01 -.578E+02 -.490E+02   0.901E+01 0.581E+02 0.492E+02   -.698E-01 -.300E+00 -.149E+00   -.390E-02 0.261E-02 -.309E-02
   0.545E+02 0.212E+02 -.490E+02   -.548E+02 -.213E+02 0.492E+02   0.294E+00 0.907E-01 -.150E+00   -.363E-03 -.472E-02 -.302E-02
   0.455E+02 -.366E+02 0.489E+02   -.458E+02 0.368E+02 -.491E+02   0.231E+00 -.213E+00 0.153E+00   -.528E-02 -.154E-02 0.225E-02
   -.545E+02 -.212E+02 0.490E+02   0.548E+02 0.213E+02 -.492E+02   -.294E+00 -.907E-01 0.150E+00   0.363E-03 0.472E-02 0.302E-02
   0.894E+01 0.578E+02 0.490E+02   -.901E+01 -.581E+02 -.492E+02   0.698E-01 0.300E+00 0.149E+00   0.390E-02 -.261E-02 0.309E-02
   -.999E-06 -.161E-05 0.612E-06   -.533E-05 -.872E-05 0.467E-05   0.121E-21 -.123E-21 -.103E-22   0.485E-10 -.225E-10 0.187E-08
   -.897E-06 -.167E-05 -.166E-06   -.489E-05 -.898E-05 -.144E-05   -.380E-22 0.896E-22 0.791E-22   -.387E-10 0.219E-10 -.708E-10
   -.108E+00 0.594E-01 -.424E+01   0.113E+00 -.627E-01 0.396E+01   0.344E-02 -.177E-02 0.271E+00   -.105E-02 0.553E-03 0.409E-02
   0.108E+00 -.594E-01 0.424E+01   -.113E+00 0.626E-01 -.396E+01   -.344E-02 0.177E-02 -.271E+00   0.105E-02 -.553E-03 -.409E-02
   -.106E+00 0.641E-01 -.424E+01   0.111E+00 -.669E-01 0.396E+01   0.326E-02 -.210E-02 0.271E+00   -.100E-02 0.630E-03 0.409E-02
   0.106E+00 -.641E-01 0.424E+01   -.111E+00 0.669E-01 -.396E+01   -.326E-02 0.210E-02 -.271E+00   0.100E-02 -.630E-03 -.409E-02
   0.472E+00 -.218E+01 -.173E-01   -.313E+00 0.209E+01 -.290E+00   -.155E+00 0.851E-01 0.302E+00   -.469E-04 -.651E-04 0.981E-04
   0.165E+01 0.150E+01 -.176E-01   -.166E+01 -.132E+01 -.289E+00   0.335E-02 -.177E+00 0.302E+00   0.108E-03 -.216E-04 0.945E-04
   -.212E+01 0.682E+00 -.203E-01   0.197E+01 -.777E+00 -.288E+00   0.152E+00 0.914E-01 0.302E+00   -.651E-04 0.888E-04 0.826E-04
   -.472E+00 0.218E+01 0.173E-01   0.313E+00 -.209E+01 0.290E+00   0.155E+00 -.851E-01 -.302E+00   0.469E-04 0.651E-04 -.981E-04
   -.165E+01 -.150E+01 0.176E-01   0.166E+01 0.132E+01 0.289E+00   -.335E-02 0.177E+00 -.302E+00   -.108E-03 0.216E-04 -.945E-04
   0.212E+01 -.682E+00 0.203E-01   -.197E+01 0.777E+00 0.288E+00   -.152E+00 -.914E-01 -.302E+00   0.651E-04 -.888E-04 -.826E-04
   -.212E+01 -.680E+00 0.173E-01   0.197E+01 0.776E+00 0.290E+00   0.151E+00 -.919E-01 -.302E+00   -.329E-04 -.732E-04 -.981E-04
   0.165E+01 -.150E+01 0.203E-01   -.166E+01 0.132E+01 0.288E+00   0.332E-02 0.177E+00 -.302E+00   0.109E-03 -.120E-04 -.826E-04
   0.469E+00 0.218E+01 0.176E-01   -.312E+00 -.209E+01 0.289E+00   -.155E+00 -.854E-01 -.302E+00   -.726E-04 0.826E-04 -.945E-04
   0.212E+01 0.680E+00 -.173E-01   -.197E+01 -.776E+00 -.290E+00   -.151E+00 0.919E-01 0.302E+00   0.329E-04 0.732E-04 0.981E-04
   -.165E+01 0.150E+01 -.203E-01   0.166E+01 -.132E+01 -.288E+00   -.332E-02 -.177E+00 0.302E+00   -.109E-03 0.120E-04 0.826E-04
   -.469E+00 -.218E+01 -.176E-01   0.312E+00 0.209E+01 -.289E+00   0.155E+00 0.854E-01 0.302E+00   0.726E-04 -.826E-04 0.945E-04
   0.451E+01 -.392E-02 0.110E-02   -.447E+01 0.474E-02 -.612E-03   -.452E-01 0.257E-04 -.604E-04   0.133E-03 0.639E-05 0.666E-05
   -.226E+01 0.391E+01 -.110E-02   0.224E+01 -.387E+01 0.614E-03   0.226E-01 -.392E-01 0.604E-04   -.609E-04 0.118E-03 -.666E-05
   -.225E+01 -.390E+01 0.160E-06   0.223E+01 0.386E+01 0.103E-05   0.227E-01 0.393E-01 0.283E-17   -.705E-04 -.122E-03 0.225E-11
   -.451E+01 0.392E-02 -.110E-02   0.447E+01 -.474E-02 0.615E-03   0.452E-01 -.257E-04 0.604E-04   -.133E-03 -.639E-05 -.666E-05
   0.226E+01 -.391E+01 0.110E-02   -.224E+01 0.387E+01 -.615E-03   -.226E-01 0.392E-01 -.604E-04   0.609E-04 -.118E-03 0.666E-05
   0.225E+01 0.390E+01 -.145E-07   -.223E+01 -.386E+01 0.449E-07   -.227E-01 -.393E-01 -.283E-17   0.705E-04 0.122E-03 -.332E-10
 -----------------------------------------------------------------------------------------------
   -.330E-04 -.571E-04 -.110E-02   0.400E-13 -.488E-14 0.631E-13   0.486E-16 -.278E-16 0.222E-15   0.244E-08 0.414E-08 0.355E-08
 
 
 POSITION                                       TOTAL-FORCE (eV/Angst)
 -----------------------------------------------------------------------------------
     -3.70328      8.56828      4.74760         0.001225     -0.003561      0.004563
      0.04889      2.23856      4.74767         0.001778      0.001984      0.004484
      3.65452      8.65284      4.74768        -0.003529      0.001669      0.004202
      9.32088      1.16156      7.46973        -0.001225      0.003561     -0.004563
      1.96307      1.07701      7.46965         0.003529     -0.001669     -0.004202
      5.56871      7.49129      7.46966        -0.001778     -0.001984     -0.004484
     -3.65442      8.65285     10.85627         0.003696      0.000719      0.004563
     -0.04874      2.23853     10.85635        -0.003210      0.002222      0.004202
      3.70337      8.56824     10.85634        -0.000829     -0.002531      0.004484
      9.27202      1.07699      1.36106        -0.003696     -0.000719     -0.004563
      1.91423      1.16160      1.36100         0.000829      0.002531     -0.004484
      5.66634      7.49131      1.36099         0.003210     -0.002222     -0.004202
     -1.91936      7.49047      1.70908         0.002559      0.004216      0.002610
      0.09039      4.32209      1.70887        -0.005790      0.004287      0.005556
      1.82936      7.64696      1.70885        -0.001416     -0.005350      0.005774
      7.53696      2.23938     10.50825        -0.002559     -0.004216     -0.002610
      3.78823      2.08288     10.50848         0.001416      0.005350     -0.005774
      5.52721      5.40776     10.50846         0.005790     -0.004287     -0.005556
     -1.82904      7.64684      7.81775        -0.002371     -0.004324      0.002610
     -0.09021      4.32210      7.81752         0.003926      0.003901      0.005774
      1.91973      7.49054      7.81754        -0.006607      0.002871      0.005556
      7.44664      2.08300      4.39958         0.002371      0.004324     -0.002610
      3.69787      2.23931      4.39980         0.006607     -0.002871     -0.005556
      5.70781      5.40774      4.39981        -0.003926     -0.003901     -0.005774
      1.83804      5.28506      4.65583         0.002337     -0.000431      0.003771
      0.12156      8.67880      4.65566        -0.000843      0.006691      0.006685
     -1.95922      5.49568      4.65565        -0.005803     -0.003894      0.006918
      3.77956      4.44478      7.56150        -0.002337      0.000431     -0.003771
      7.57682      4.23416      7.56168         0.005803      0.003894     -0.006918
      5.49603      1.05105      7.56167         0.000843     -0.006691     -0.006685
      1.95959      5.49554     10.76450         0.001542     -0.001808      0.003771
     -0.12144      8.67875     10.76431         0.000470      0.006973      0.006918
     -1.83771      5.28518     10.76433        -0.006216     -0.002616      0.006685
      3.65800      4.23430      1.45283        -0.001542      0.001808     -0.003771
      7.45530      4.44466      1.45301         0.006216      0.002616     -0.006685
      5.73904      1.05109      1.45302        -0.000470     -0.006973     -0.006918
      0.00000      0.00000     -0.00000         0.000000     -0.000000     -0.000000
      0.00003     -0.00001      6.10867         0.000000     -0.000000     -0.000000
     -0.00047      6.48685      3.19106         0.007577     -0.004473     -0.002778
      5.61807      3.24299      9.02627        -0.007577      0.004473      0.002778
     -0.00044      6.48684      9.29973         0.007662     -0.004325     -0.002778
      5.61804      3.24300      2.91761        -0.007662      0.004325      0.002778
      2.06029      3.22664     11.85737         0.003816      0.000760     -0.005157
      7.41058      0.17089     11.85739        -0.001327      0.002457     -0.005077
      7.38189      6.33226     11.85743        -0.002529     -0.003027     -0.005796
      3.55730      6.50320      0.35996        -0.003816     -0.000760      0.005157
     -1.79298      9.55895      0.35995         0.001327     -0.002457      0.005077
     -1.76429      3.39759      0.35990         0.002529      0.003027      0.005796
      1.76428      3.39754      6.46863        -0.001250      0.003685      0.005157
      1.79303      9.55898      6.46857        -0.001357     -0.003703      0.005796
     -3.55721      6.50315      6.46861         0.002791      0.000079      0.005077
      3.85331      6.33230      5.74870         0.001250     -0.003685     -0.005157
      3.82457      0.17086      5.74876         0.001357      0.003703     -0.005796
      9.17481      3.22669      5.74872        -0.002791     -0.000079     -0.005077
      3.63737     -0.00006      9.16298        -0.000286      0.000851      0.000434
     -1.81867      3.14998      9.16302         0.000880      0.000178     -0.000434
      3.79893      6.57985      9.16300        -0.000442     -0.000765     -0.000000
      7.59776      0.00004      3.05440         0.000286     -0.000851     -0.000434
     -3.79882      6.57986      3.05427        -0.000880     -0.000178      0.000434
      1.81867      3.14999      3.05433         0.000442      0.000765     -0.000000
 -----------------------------------------------------------------------------------
    total drift:                               -0.000033     -0.000057     -0.001098


--------------------------------------------------------------------------------------------------------



  FREE ENERGIE OF THE ION-ELECTRON SYSTEM (eV)
  ---------------------------------------------------
  free  energy   TOTEN  =      -246.94880102 eV

  energy  without entropy=     -246.94880102  energy(sigma->0) =     -246.94880102
 
 d Force = 0.1011495E-02[ 0.372E-03, 0.165E-02]  d Energy = 0.9296100E-03 0.819E-04
 d Force =-0.7036280E+00[-0.715E+00,-0.692E+00]  d Ewald  =-0.7036380E+00 0.100E-04


--------------------------------------------------------------------------------------------------------


    POTLOK:  cpu time      0.0864: real time      0.0866


--------------------------------------------------------------------------------------------------------




--------------------------------------------------------------------------------------------------------


  
 reached required accuracy - stopping structural energy minimisation
     LOOP+:  cpu time     24.8984: real time     25.1547
    4ORBIT:  cpu time      0.0001: real time      0.0124



 total charge

# of ion       s       p       d       tot
------------------------------------------
    1        1.592   3.581   0.000   5.174
    2        1.592   3.581   0.000   5.174
    3        1.592   3.581   0.000   5.174
    4        1.592   3.581   0.000   5.174
    5        1.592   3.581   0.000   5.174
    6        1.592   3.581   0.000   5.174
    7        1.592   3.581   0.000   5.174
    8        1.592   3.581   0.000   5.174
    9        1.592   3.581   0.000   5.174
   10        1.592   3.581   0.000   5.174
   11        1.592   3.581   0.000   5.174
   12        1.592   3.581   0.000   5.174
   13        1.591   3.586   0.000   5.178
   14        1.591   3.586   0.000   5.177
   15        1.591   3.586   0.000   5.177
   16        1.591   3.586   0.000   5.178
   17        1.591   3.586   0.000   5.177
   18        1.591   3.586   0.000   5.177
   19        1.591   3.586   0.000   5.178
   20        1.591   3.586   0.000   5.177
   21        1.591   3.586   0.000   5.177
   22        1.591   3.586   0.000   5.178
   23        1.591   3.586   0.000   5.177
   24        1.591   3.586   0.000   5.177
   25        1.591   3.585   0.000   5.175
   26        1.591   3.585   0.000   5.176
   27        1.591   3.585   0.000   5.176
   28        1.591   3.585   0.000   5.175
   29        1.591   3.585   0.000   5.176
   30        1.591   3.585   0.000   5.176
   31        1.591   3.585   0.000   5.175
   32        1.591   3.585   0.000   5.176
   33        1.591   3.585   0.000   5.176
   34        1.591   3.585   0.000   5.175
   35        1.591   3.585   0.000   5.176
   36        1.591   3.585   0.000   5.176
   37        0.349   6.831   1.054   8.234
   38        0.349   6.831   1.054   8.234
   39        0.339   6.793   1.020   8.151
   40        0.339   6.793   1.020   8.151
   41        0.339   6.793   1.020   8.151
   42        0.339   6.793   1.020   8.151
   43        0.055   0.100   0.000   0.154
   44        0.055   0.100   0.000   0.154
   45        0.055   0.100   0.000   0.154
   46        0.055   0.100   0.000   0.154
   47        0.055   0.100   0.000   0.154
   48        0.055   0.100   0.000   0.154
   49        0.055   0.100   0.000   0.154
   50        0.055   0.100   0.000   0.154
   51        0.055   0.100   0.000   0.154
   52        0.055   0.100   0.000   0.154
   53        0.055   0.100   0.000   0.154
   54        0.055   0.100   0.000   0.154
   55        0.057   0.107   0.000   0.165
   56        0.057   0.107   0.000   0.165
   57        0.057   0.107   0.000   0.165
   58        0.057   0.107   0.000   0.165
   59        0.057   0.107   0.000   0.165
   60        0.057   0.107   0.000   0.165
--------------------------------------------------
tot         60.342 171.702   6.187 238.231
 

 total amount of memory used by VASP MPI-rank0   126424. kBytes
=======================================================================

   base      :      30000. kBytes
   nonl-proj :      50045. kBytes
   fftplans  :       6999. kBytes
   grid      :      35529. kBytes
   one-center:        933. kBytes
   wavefun   :       2918. kBytes
 
  
  
 General timing and accounting informations for this job:
 ========================================================
  
                  Total CPU time used (sec):      159.991
                            User time (sec):      158.133
                          System time (sec):        1.858
                         Elapsed time (sec):      168.622
  
                   Maximum memory used (kb):      414344.
                   Average memory used (kb):          N/A
  
                          Minor page faults:       152011
                          Major page faults:           32
                 Voluntary context switches:        10484
