LYC-164-space-group                     
   1.00000000000000     
    11.3393121675368995    0.0000000215239819    0.0000000000000000
    -5.6696561024087639    9.8201323877561855    0.0000000000000000
     0.0000000000000000    0.0000000000000000   12.3893483621718516
   Cl   Li   Y 
    36    18     6
Direct
  0.1148731503663039  0.8842182928188496  0.3815703515113421
  0.1147059340628390  0.2357321639718732  0.3790467613488411
  0.7605100320497775  0.8813714032883930  0.3805721896077270
  0.8818493135167444  0.1158452872918485  0.6031561711654070
  0.2248115199210321  0.1132538147721688  0.6035484836447917
  0.8813983262985234  0.7723160330156583  0.6030968498544290
  0.0935525606218098  0.8774108363255572  0.8818414786735331
  0.1229142039313923  0.2172114205936203  0.8831836272700578
  0.7836077400475009  0.9084678843072053  0.8814423953788902
  0.8754605033449171  0.1057758230074050  0.1223437537310683
  0.2291492418934672  0.1234949248390700  0.1227468654710659
  0.8930600818651107  0.7698030121115673  0.1220272058789733
  0.2141224912025723  0.7802219831138216  0.1375160583871516
  0.2195962032070142  0.4351445025922511  0.1374522796801040
  0.5648384366767760  0.7859059642594121  0.1369336316549499
  0.7904673300738048  0.2348178046205558  0.8620471542246385
  0.4419766360880223  0.2078699874008248  0.8630753360890556
  0.7621576343400345  0.5562989861241562  0.8623875738163379
  0.2264810884168975  0.7950001302368870  0.6342978782180250
  0.2002145569824113  0.4316077353804308  0.6351560008374693
  0.5626509956905905  0.7692278898114702  0.6351346060384212
  0.7855378581009296  0.2252855283013222  0.3566295023457348
  0.4360189469916102  0.2126809970040089  0.3563157846608146
  0.7738964659735985  0.5632177216372214  0.3565426337606964
  0.4524231579373226  0.5374361716602809  0.3806705474956420
  0.4582904879781633  0.9160373400756120  0.3781734294111405
  0.0827305781768097  0.5471778937267660  0.3803712836206590
  0.5556985598853675  0.4499824525772558  0.6242429824602597
  0.8889869737904520  0.4429148204222237  0.6226702850785812
  0.5437670265519801  0.1058649020035709  0.6243259568341419
  0.4281404602269922  0.5599614545356277  0.8861795539978521
  0.4375262115708050  0.8689510639871658  0.8855983076042111
  0.1277377282502927  0.5688083391938101  0.8874706228191016
  0.5427599014743533  0.4394480116433533  0.1265857621777356
  0.8941177502927549  0.4562479987488966  0.1270145918230279
  0.5607313635469926  0.1061108077629573  0.1259064026138336
  0.6977518769804824  0.0398802338074698  0.9788684497529911
  0.9609739741964846  0.6591509853753061  0.9781463522153544
  0.3394497503702292  0.3047581418530000  0.9799472689800223
  0.3514739333812296  0.0075542561511958  0.4925089137012129
  0.9850751161981556  0.3496776047259980  0.4954581898193993
  0.6507031104442128  0.6410722765870912  0.4945833989353959
  0.6258550744692425  0.9774808019410061  0.5201950371865066
  0.0155524863884521  0.6554540583093368  0.5190180065992424
  0.3444320999020730  0.3631074955425608  0.5202027682517144
  0.3492061279268203  0.9938635736036319  0.2382701180024593
  0.0082257056821914  0.3591353987448978  0.2434372231682429
  0.6393481264571335  0.6494943978184884  0.2425562958411493
  0.2801692024768369  0.0117409749212489  0.7619285525860530
  0.9867345886587252  0.2632807351207743  0.7635088837238868
  0.7320531190985806  0.7232078560914651  0.7639936931832346
  0.6536452543336798  0.9936919531468815  0.2563371315782743
  0.0055019316496092  0.6622295247718510  0.2558759821168673
  0.3366890157222134  0.3444672443712094  0.2571392267617994
 -0.0002781742725874 -0.0002088152398970  0.0099194961717041
 -0.0039825112796398  0.0015695704185215  0.4867520982139081
  0.6643245997163159  0.3324920194957891  0.7429845299347843
  0.3292069560792040  0.6647958502730134  0.7361087837104778
  0.6654544464469264  0.3338795419603610  0.2406794305469490
  0.3328362471628921  0.6671032560457089  0.0374958618326693
 
  0.00000000E+00  0.00000000E+00  0.00000000E+00
  0.00000000E+00  0.00000000E+00  0.00000000E+00
  0.00000000E+00  0.00000000E+00  0.00000000E+00
  0.00000000E+00  0.00000000E+00  0.00000000E+00
  0.00000000E+00  0.00000000E+00  0.00000000E+00
  0.00000000E+00  0.00000000E+00  0.00000000E+00
  0.00000000E+00  0.00000000E+00  0.00000000E+00
  0.00000000E+00  0.00000000E+00  0.00000000E+00
  0.00000000E+00  0.00000000E+00  0.00000000E+00
  0.00000000E+00  0.00000000E+00  0.00000000E+00
  0.00000000E+00  0.00000000E+00  0.00000000E+00
  0.00000000E+00  0.00000000E+00  0.00000000E+00
  0.00000000E+00  0.00000000E+00  0.00000000E+00
  0.00000000E+00  0.00000000E+00  0.00000000E+00
  0.00000000E+00  0.00000000E+00  0.00000000E+00
  0.00000000E+00  0.00000000E+00  0.00000000E+00
  0.00000000E+00  0.00000000E+00  0.00000000E+00
  0.00000000E+00  0.00000000E+00  0.00000000E+00
  0.00000000E+00  0.00000000E+00  0.00000000E+00
  0.00000000E+00  0.00000000E+00  0.00000000E+00
  0.00000000E+00  0.00000000E+00  0.00000000E+00
  0.00000000E+00  0.00000000E+00  0.00000000E+00
  0.00000000E+00  0.00000000E+00  0.00000000E+00
  0.00000000E+00  0.00000000E+00  0.00000000E+00
  0.00000000E+00  0.00000000E+00  0.00000000E+00
  0.00000000E+00  0.00000000E+00  0.00000000E+00
  0.00000000E+00  0.00000000E+00  0.00000000E+00
  0.00000000E+00  0.00000000E+00  0.00000000E+00
  0.00000000E+00  0.00000000E+00  0.00000000E+00
  0.00000000E+00  0.00000000E+00  0.00000000E+00
  0.00000000E+00  0.00000000E+00  0.00000000E+00
  0.00000000E+00  0.00000000E+00  0.00000000E+00
  0.00000000E+00  0.00000000E+00  0.00000000E+00
  0.00000000E+00  0.00000000E+00  0.00000000E+00
  0.00000000E+00  0.00000000E+00  0.00000000E+00
  0.00000000E+00  0.00000000E+00  0.00000000E+00
  0.00000000E+00  0.00000000E+00  0.00000000E+00
  0.00000000E+00  0.00000000E+00  0.00000000E+00
  0.00000000E+00  0.00000000E+00  0.00000000E+00
  0.00000000E+00  0.00000000E+00  0.00000000E+00
  0.00000000E+00  0.00000000E+00  0.00000000E+00
  0.00000000E+00  0.00000000E+00  0.00000000E+00
  0.00000000E+00  0.00000000E+00  0.00000000E+00
  0.00000000E+00  0.00000000E+00  0.00000000E+00
  0.00000000E+00  0.00000000E+00  0.00000000E+00
  0.00000000E+00  0.00000000E+00  0.00000000E+00
  0.00000000E+00  0.00000000E+00  0.00000000E+00
  0.00000000E+00  0.00000000E+00  0.00000000E+00
  0.00000000E+00  0.00000000E+00  0.00000000E+00
  0.00000000E+00  0.00000000E+00  0.00000000E+00
  0.00000000E+00  0.00000000E+00  0.00000000E+00
  0.00000000E+00  0.00000000E+00  0.00000000E+00
  0.00000000E+00  0.00000000E+00  0.00000000E+00
  0.00000000E+00  0.00000000E+00  0.00000000E+00
  0.00000000E+00  0.00000000E+00  0.00000000E+00
  0.00000000E+00  0.00000000E+00  0.00000000E+00
  0.00000000E+00  0.00000000E+00  0.00000000E+00
  0.00000000E+00  0.00000000E+00  0.00000000E+00
  0.00000000E+00  0.00000000E+00  0.00000000E+00
  0.00000000E+00  0.00000000E+00  0.00000000E+00
