Li3InCl6                                
   1.00000000000000     
    13.4590179104963532    0.0000000000000000   -0.2730850081025033
     0.0000000000000000   11.4560718765941516    0.0000000000000000
    -4.7917770538581186    0.0000000000000000   12.1676401793538442
   Cl   In   Li
    48     8    24
Direct
  0.1319518518107178  0.1672573520969595  0.1599507871856267
  0.8680481481892822  0.1672573520969595  0.8400491908143715
  0.8824340151020227  0.8154165864019505  0.8569274318332341
  0.1175659848979772  0.8154165864019505  0.1430725461667640
  0.3628338789162957  0.6512581658923305  0.1435626984239467
  0.1166755831208546  0.6589278607743781  0.8819055585911263
  0.1333659732692102  0.3557813879162767  0.8618604682470868
  0.3638189515121019  0.3469114118658019  0.1397820430246143
  0.1165565425284601  0.1500996387320552  0.6391178034566173
  0.8834434574715397  0.1500996387320552  0.3608822255433817
  0.8774679451320366  0.8391056401983178  0.3613217843658578
  0.1225320548679633  0.8391056401983178  0.6386782446341410
  0.3774752970475606  0.6517008919720202  0.6320346902670196
  0.1288171283170549  0.6458786982830512  0.3704692441213910
  0.1301378168218699  0.3426722521834333  0.3842121001445224
  0.3700711778977455  0.3506660070299822  0.6469979241952883
  0.6195131420662333  0.1536543514580105  0.1368466176663244
  0.3804868579337596  0.1536543514580105  0.8631533603336735
  0.3850052235896586  0.8482453658032131  0.8627848847391321
  0.6149947764103411  0.8482453658032131  0.1372150932608663
  0.8833244168791452  0.6589278607743781  0.1180944194088719
  0.6371661210837042  0.6512581658923305  0.8564372795760512
  0.6361810484878981  0.3469114118658019  0.8602179349753839
  0.8666340267307897  0.3557813879162767  0.1381395097529114
  0.6039194824390660  0.1581692662031857  0.6362043315814592
  0.3960805175609412  0.1581692662031857  0.3637956974185395
  0.3767617818016368  0.8520146139204199  0.3534931501347986
  0.6232382181983631  0.8520146139204199  0.6465068788652005
  0.8711828716829449  0.6458786982830512  0.6295307848786080
  0.6225247029524392  0.6517008919720202  0.3679653387329793
  0.6299288221022543  0.3506660070299822  0.3530021048047105
  0.8698621831781301  0.3426722521834333  0.6157879288554764
  0.1122414641813607  0.9880487063235456  0.3847636455587697
  0.8877585358186391  0.9880487063235456  0.6152363844412325
  0.3567641577577135  0.4908487860801056  0.3788707575456803
  0.1404574817939579  0.5139900037688974  0.6292045997225524
  0.1250968754696521  0.9888354543336620  0.8813573825100313
  0.8749031245303478  0.9888354543336620  0.1186425874899664
  0.3596716167049649  0.5222485349828651  0.8845821918266854
  0.1228851951783330  0.5082729744967103  0.1117651541566112
  0.6188099894373328  0.9926921095216347  0.3911938426381995
  0.3811900105626674  0.9926921095216347  0.6088061873618029
  0.8595425182060420  0.5139900037688974  0.3707954302774501
  0.6432358422422865  0.4908487860801056  0.6211292724543223
  0.6113386137861020  0.0036491724813821  0.8793947249931703
  0.3886613862139054  0.0036491724813821  0.1206052450068272
  0.8771148048216669  0.5082729744967103  0.8882348158433864
  0.6403283832950352  0.5222485349828651  0.1154177781733119
  0.2552625116161788  0.4965646443514494  0.0050347160114754
  0.0000000000000000  0.0002258328591488  0.5000000000000000
  0.2504940499740615  0.4983315259663386  0.5047179471866273
  0.5000000000000000  0.0037396338983919 -0.0000000000000000
  0.7447374883838213  0.4965646443514494  0.9949652839885247
  0.5000000000000000  0.9952295270666960  0.5000000000000000
  0.7495059500259386  0.4983315259663386  0.4952820528133725
  0.0000000000000000  0.6796698252683093 -0.0000000000000000
  0.9992179830938854  0.1219048470608344  0.2266605864680330
  0.0129172240293534  0.8614279331551973  0.7528734763476320
  0.2508894176627037  0.6648544554708337  0.2644276235752080
  0.2552771684800518  0.3611136456574519  0.7586128008008690
  0.0007820169061144  0.1219048470608344  0.7733394135319669
  0.9870827759706469  0.8614279331551973  0.2471265236523678
  0.2608342893168175  0.6778101713408909  0.7345358407507335
  0.2462354029650653  0.3040417701050648  0.2753287713736561
  0.5180634930162511  0.1441741346128156  0.2601321478406625
  0.4983661367013954  0.8560818003784584  0.7491763732827188
  0.7391657106831823  0.6778101713408909  0.2654641592492664
  0.7537645970349347  0.3040417701050648  0.7246712286263438
  0.4819365069837490  0.1441741346128156  0.7398678521593371
  0.5016338632986048  0.8560818003784584  0.2508236267172810
  0.7491105823372961  0.6648544554708337  0.7355723764247921
  0.7447228315199479  0.3611136456574519  0.2413871991991312
  0.2613438172749958  0.0261294629660872  0.2222603724628431
  0.4820284684783162  0.4976152875652547  0.2676975811048182
  0.2257130328522042  0.0010714825924596  0.7739583895945115
  0.5179715315216842  0.4976152875652547  0.7323024188951819
  0.7742869671477957  0.0010714825924596  0.2260416104054885
  0.9957093964639109  0.4864511995104290  0.2826903609056635
  0.7386561827250038  0.0261294629660872  0.7777396275371566
  0.0042906035360892  0.4864511995104290  0.7173096390943365
 
  0.00000000E+00  0.00000000E+00  0.00000000E+00
  0.00000000E+00  0.00000000E+00  0.00000000E+00
  0.00000000E+00  0.00000000E+00  0.00000000E+00
  0.00000000E+00  0.00000000E+00  0.00000000E+00
  0.00000000E+00  0.00000000E+00  0.00000000E+00
  0.00000000E+00  0.00000000E+00  0.00000000E+00
  0.00000000E+00  0.00000000E+00  0.00000000E+00
  0.00000000E+00  0.00000000E+00  0.00000000E+00
  0.00000000E+00  0.00000000E+00  0.00000000E+00
  0.00000000E+00  0.00000000E+00  0.00000000E+00
  0.00000000E+00  0.00000000E+00  0.00000000E+00
  0.00000000E+00  0.00000000E+00  0.00000000E+00
  0.00000000E+00  0.00000000E+00  0.00000000E+00
  0.00000000E+00  0.00000000E+00  0.00000000E+00
  0.00000000E+00  0.00000000E+00  0.00000000E+00
  0.00000000E+00  0.00000000E+00  0.00000000E+00
  0.00000000E+00  0.00000000E+00  0.00000000E+00
  0.00000000E+00  0.00000000E+00  0.00000000E+00
  0.00000000E+00  0.00000000E+00  0.00000000E+00
  0.00000000E+00  0.00000000E+00  0.00000000E+00
  0.00000000E+00  0.00000000E+00  0.00000000E+00
  0.00000000E+00  0.00000000E+00  0.00000000E+00
  0.00000000E+00  0.00000000E+00  0.00000000E+00
  0.00000000E+00  0.00000000E+00  0.00000000E+00
  0.00000000E+00  0.00000000E+00  0.00000000E+00
  0.00000000E+00  0.00000000E+00  0.00000000E+00
  0.00000000E+00  0.00000000E+00  0.00000000E+00
  0.00000000E+00  0.00000000E+00  0.00000000E+00
  0.00000000E+00  0.00000000E+00  0.00000000E+00
  0.00000000E+00  0.00000000E+00  0.00000000E+00
  0.00000000E+00  0.00000000E+00  0.00000000E+00
  0.00000000E+00  0.00000000E+00  0.00000000E+00
  0.00000000E+00  0.00000000E+00  0.00000000E+00
  0.00000000E+00  0.00000000E+00  0.00000000E+00
  0.00000000E+00  0.00000000E+00  0.00000000E+00
  0.00000000E+00  0.00000000E+00  0.00000000E+00
  0.00000000E+00  0.00000000E+00  0.00000000E+00
  0.00000000E+00  0.00000000E+00  0.00000000E+00
  0.00000000E+00  0.00000000E+00  0.00000000E+00
  0.00000000E+00  0.00000000E+00  0.00000000E+00
  0.00000000E+00  0.00000000E+00  0.00000000E+00
  0.00000000E+00  0.00000000E+00  0.00000000E+00
  0.00000000E+00  0.00000000E+00  0.00000000E+00
  0.00000000E+00  0.00000000E+00  0.00000000E+00
  0.00000000E+00  0.00000000E+00  0.00000000E+00
  0.00000000E+00  0.00000000E+00  0.00000000E+00
  0.00000000E+00  0.00000000E+00  0.00000000E+00
  0.00000000E+00  0.00000000E+00  0.00000000E+00
  0.00000000E+00  0.00000000E+00  0.00000000E+00
  0.00000000E+00  0.00000000E+00  0.00000000E+00
  0.00000000E+00  0.00000000E+00  0.00000000E+00
  0.00000000E+00  0.00000000E+00  0.00000000E+00
  0.00000000E+00  0.00000000E+00  0.00000000E+00
  0.00000000E+00  0.00000000E+00  0.00000000E+00
  0.00000000E+00  0.00000000E+00  0.00000000E+00
  0.00000000E+00  0.00000000E+00  0.00000000E+00
  0.00000000E+00  0.00000000E+00  0.00000000E+00
  0.00000000E+00  0.00000000E+00  0.00000000E+00
  0.00000000E+00  0.00000000E+00  0.00000000E+00
  0.00000000E+00  0.00000000E+00  0.00000000E+00
  0.00000000E+00  0.00000000E+00  0.00000000E+00
  0.00000000E+00  0.00000000E+00  0.00000000E+00
  0.00000000E+00  0.00000000E+00  0.00000000E+00
  0.00000000E+00  0.00000000E+00  0.00000000E+00
  0.00000000E+00  0.00000000E+00  0.00000000E+00
  0.00000000E+00  0.00000000E+00  0.00000000E+00
  0.00000000E+00  0.00000000E+00  0.00000000E+00
  0.00000000E+00  0.00000000E+00  0.00000000E+00
  0.00000000E+00  0.00000000E+00  0.00000000E+00
  0.00000000E+00  0.00000000E+00  0.00000000E+00
  0.00000000E+00  0.00000000E+00  0.00000000E+00
  0.00000000E+00  0.00000000E+00  0.00000000E+00
  0.00000000E+00  0.00000000E+00  0.00000000E+00
  0.00000000E+00  0.00000000E+00  0.00000000E+00
  0.00000000E+00  0.00000000E+00  0.00000000E+00
  0.00000000E+00  0.00000000E+00  0.00000000E+00
  0.00000000E+00  0.00000000E+00  0.00000000E+00
  0.00000000E+00  0.00000000E+00  0.00000000E+00
  0.00000000E+00  0.00000000E+00  0.00000000E+00
  0.00000000E+00  0.00000000E+00  0.00000000E+00
