 vasp.5.4.4.18Apr17-6-g9f103f2a35 (build Feb 24 2022 11:29:53) complex          
  
 executed on             LinuxIFC date 2024.05.05  17:22:11
 running on   40 total cores
 distrk:  each k-point on   40 cores,    1 groups
 distr:  one band on NCORES_PER_BAND=   1 cores,   40 groups


--------------------------------------------------------------------------------------------------------


 INCAR:
 POTCAR:    PAW_PBE Cl 17Jan2003                  
 POTCAR:   PAW_PBE In 08Apr2002                   
 POTCAR:    PAW_PBE Li 17Jan2003                  

 ----------------------------------------------------------------------------- 
|                                                                             |
|           W    W    AA    RRRRR   N    N  II  N    N   GGGG   !!!           |
|           W    W   A  A   R    R  NN   N  II  NN   N  G    G  !!!           |
|           W    W  A    A  R    R  N N  N  II  N N  N  G       !!!           |
|           W WW W  AAAAAA  RRRRR   N  N N  II  N  N N  G  GGG   !            |
|           WW  WW  A    A  R   R   N   NN  II  N   NN  G    G                |
|           W    W  A    A  R    R  N    N  II  N    N   GGGG   !!!           |
|                                                                             |
|      For optimal performance we recommend to set                            |
|        NCORE= 4 - approx SQRT( number of cores)                             |
|      NCORE specifies how many cores store one orbital (NPAR=cpu/NCORE).     |
|      This setting can  greatly improve the performance of VASP for DFT.     |
|      The default,   NCORE=1            might be grossly inefficient         |
|      on modern multi-core architectures or massively parallel machines.     |
|      Do your own testing !!!!                                               |
|      Unfortunately you need to use the default for GW and RPA calculations. |
|      (for HF NCORE is supported but not extensively tested yet)             |
|                                                                             |
 ----------------------------------------------------------------------------- 

 POTCAR:    PAW_PBE Cl 17Jan2003                  
   VRHFIN =Cl: s2p5                                                             
   LEXCH  = PE                                                                  
   EATOM  =   409.7259 eV,   30.1140 Ry                                         
                                                                                
   TITEL  = PAW_PBE Cl 17Jan2003                                                
   LULTRA =        F    use ultrasoft PP ?                                      
   IUNSCR =        1    unscreen: 0-lin 1-nonlin 2-no                           
   RPACOR =    1.500    partial core radius                                     
   POMASS =   35.453; ZVAL   =    7.000    mass and valenz                      
   RCORE  =    1.900    outmost cutoff radius                                   
   RWIGS  =    2.100; RWIGS  =    1.111    wigner-seitz radius (au A)           
   ENMAX  =  280.000; ENMIN  =  196.854 eV                                      
   ICORE  =        2    local potential                                         
   LCOR   =        T    correct aug charges                                     
   LPAW   =        T    paw PP                                                  
   EAUG   =  356.192                                                            
   DEXC   =     .000                                                            
   RMAX   =    2.846    core radius for proj-oper                               
   RAUG   =    1.300    factor for augmentation sphere                          
   RDEP   =    2.020    radius for radial grids                                 
   QCUT   =   -4.392; QGAM   =    8.784    optimization parameters              
                                                                                
   Description                                                                  
     l     E      TYP  RCUT    TYP  RCUT                                        
     0   .000     23  1.900                                                     
     0   .000     23  1.900                                                     
     1   .000     23  1.900                                                     
     1   .000     23  1.900                                                     
     2   .000     23  1.900                                                     
  local pseudopotential read in
  partial core-charges read in
  atomic valenz-charges read in
  non local Contribution for L=           0  read in
    real space projection operators read in
  non local Contribution for L=           0  read in
    real space projection operators read in
  non local Contribution for L=           1  read in
    real space projection operators read in
  non local Contribution for L=           1  read in
    real space projection operators read in
    PAW grid and wavefunctions read in
 
   number of l-projection  operators is LMAX  =           4
   number of lm-projection operators is LMMAX =           8
 
 POTCAR:   PAW_PBE In 08Apr2002                   
   VRHFIN =In: s2p1                                                             
   LEXCH  = PE                                                                  
   EATOM  =    53.7908 eV,    3.9535 Ry                                         
                                                                                
   TITEL  = PAW_PBE In 08Apr2002                                                
   LULTRA =        F    use ultrasoft PP ?                                      
   IUNSCR =        1    unscreen: 0-lin 1-nonlin 2-no                           
   RPACOR =    2.400    partial core radius                                     
   POMASS =  114.820; ZVAL   =    3.000    mass and valenz                      
   RCORE  =    3.100    outmost cutoff radius                                   
   RWIGS  =    3.170; RWIGS  =    1.677    wigner-seitz radius (au A)           
   ENMAX  =   95.934; ENMIN  =   71.951 eV                                      
   ICORE  =        3    local potential                                         
   LCOR   =        T    correct aug charges                                     
   LPAW   =        T    paw PP                                                  
   EAUG   =  237.125                                                            
   DEXC   =    -.110                                                            
   RMAX   =    4.707    core radius for proj-oper                               
   RAUG   =    1.300    factor for augmentation sphere                          
   RDEP   =    3.187    radius for radial grids                                 
   QCUT   =   -2.655; QGAM   =    5.311    optimization parameters              
                                                                                
   Description                                                                  
     l     E      TYP  RCUT    TYP  RCUT                                        
     0   .000     23  3.100                                                     
     0   .000     23  3.100                                                     
     1   .000     23  3.100                                                     
     1   .000     23  3.100                                                     
     2  -.100     23  3.100                                                     
     3  -.100     23  3.100                                                     
  local pseudopotential read in
  partial core-charges read in
  atomic valenz-charges read in
  non local Contribution for L=           0  read in
    real space projection operators read in
  non local Contribution for L=           0  read in
    real space projection operators read in
  non local Contribution for L=           1  read in
    real space projection operators read in
  non local Contribution for L=           1  read in
    real space projection operators read in
  non local Contribution for L=           2  read in
    real space projection operators read in
    PAW grid and wavefunctions read in
 
   number of l-projection  operators is LMAX  =           5
   number of lm-projection operators is LMMAX =          13
 
 POTCAR:    PAW_PBE Li 17Jan2003                  
   VRHFIN =Li: s1p0                                                             
   LEXCH  = PE                                                                  
   EATOM  =     5.3001 eV,     .3895 Ry                                         
                                                                                
   TITEL  = PAW_PBE Li 17Jan2003                                                
   LULTRA =        F    use ultrasoft PP ?                                      
   IUNSCR =        1    unscreen: 0-lin 1-nonlin 2-no                           
   RPACOR =    1.500    partial core radius                                     
   POMASS =    7.010; ZVAL   =    1.000    mass and valenz                      
   RCORE  =    2.050    outmost cutoff radius                                   
   RWIGS  =    2.600; RWIGS  =    1.376    wigner-seitz radius (au A)           
   ENMAX  =  140.000; ENMIN  =  100.000 eV                                      
   ICORE  =        2    local potential                                         
   LCOR   =        T    correct aug charges                                     
   LPAW   =        T    paw PP                                                  
   EAUG   =  331.638                                                            
   DEXC   =    -.010                                                            
   RMAX   =    4.263    core radius for proj-oper                               
   RAUG   =    1.300    factor for augmentation sphere                          
   RDEP   =    2.094    radius for radial grids                                 
   QCUT   =   -2.932; QGAM   =    5.865    optimization parameters              
                                                                                
   Description                                                                  
     l     E      TYP  RCUT    TYP  RCUT                                        
     0   .000     23  2.050                                                     
     0  2.000     23  2.050                                                     
     1   .000     23  2.050                                                     
     2   .000     23  2.050                                                     
  local pseudopotential read in
  partial core-charges read in
  atomic valenz-charges read in
  non local Contribution for L=           0  read in
    real space projection operators read in
  non local Contribution for L=           0  read in
    real space projection operators read in
  non local Contribution for L=           1  read in
    real space projection operators read in
    PAW grid and wavefunctions read in
 
   number of l-projection  operators is LMAX  =           3
   number of lm-projection operators is LMMAX =           5
 

 ----------------------------------------------------------------------------- 
|                                                                             |
|  ADVICE TO THIS USER RUNNING 'VASP/VAMP'   (HEAR YOUR MASTER'S VOICE ...):  |
|                                                                             |
|      You have a (more or less) 'large supercell' and for larger cells       |
|      it might be more efficient to use real space projection operators      |
|      So try LREAL= Auto  in the INCAR   file.                               |
|      Mind: If you want to do a very accurate calculations keep the          |
|      reciprocal projection scheme          (i.e. LREAL=.FALSE.)             |
|                                                                             |
 ----------------------------------------------------------------------------- 

  PAW_PBE Cl 17Jan2003                  :
 energy of atom  1       EATOM= -409.7259
 kinetic energy error for atom=    0.0023 (will be added to EATOM!!)
 PAW_PBE In 08Apr2002                   :
 energy of atom  2       EATOM=  -53.7908
 kinetic energy error for atom=    0.0000 (will be added to EATOM!!)
  PAW_PBE Li 17Jan2003                  :
 energy of atom  3       EATOM=   -5.3001
 kinetic energy error for atom=    0.0000 (will be added to EATOM!!)
 
 
 POSCAR: Li3InCl6                                
  positions in direct lattice
  velocities in cartesian coordinates
 exchange correlation table for  LEXCH =        8
   RHO(1)=    0.500       N(1)  =     2000
   RHO(2)=  100.500       N(2)  =     4000
 


--------------------------------------------------------------------------------------------------------


 ion  position               nearest neighbor table
   1  0.132  0.168  0.158-  73 2.29  64 2.31  57 2.33
   2  0.868  0.168  0.842-  79 2.29  68 2.31  61 2.33
   3  0.882  0.816  0.857-  56 2.48  71 2.55  58 2.67
   4  0.118  0.816  0.143-  56 2.48  59 2.55  62 2.67
   5  0.363  0.651  0.143-  74 2.52  49 2.55  59 2.58
   6  0.117  0.659  0.882-  56 2.61  49 2.69  80 2.87  58 2.90
   7  0.133  0.355  0.862-  60 2.50  80 2.51  49 2.54
   8  0.365  0.347  0.140-  49 2.49  74 2.50  64 2.84
   9  0.118  0.151  0.639-  75 2.49  50 2.55  61 2.81
  10  0.882  0.151  0.361-  77 2.49  50 2.55  57 2.81
  11  0.878  0.840  0.362-  62 2.48  77 2.57  67 2.60  50 2.66
  12  0.122  0.840  0.638-  58 2.48  75 2.57  63 2.60  50 2.66
  13  0.377  0.652  0.632-  63 2.44  76 2.55  51 2.57  66 2.92
  14  0.129  0.646  0.371-  78 2.51  51 2.53  59 2.54
  15  0.130  0.343  0.384-  78 2.43  51 2.52  64 2.53
  16  0.370  0.350  0.646-  60 2.51  76 2.52  51 2.57  69 2.83
  17  0.619  0.154  0.137-  65 2.49  52 2.55  77 2.62  72 2.92
  18  0.381  0.154  0.863-  69 2.49  52 2.55  75 2.62  60 2.92
  19  0.385  0.848  0.863-  66 2.51  52 2.58  75 2.66  63 2.69
  20  0.615  0.848  0.137-  70 2.51  52 2.58  77 2.66  67 2.69
  21  0.883  0.659  0.118-  56 2.61  53 2.69  78 2.87  62 2.90
  22  0.637  0.651  0.857-  76 2.52  53 2.55  71 2.58
  23  0.635  0.347  0.860-  53 2.49  76 2.50  68 2.84
  24  0.867  0.355  0.138-  72 2.50  78 2.51  53 2.54
  25  0.605  0.158  0.636-  69 2.51  79 2.53  68 2.53  54 2.59
  26  0.395  0.158  0.364-  65 2.51  73 2.53  64 2.53  54 2.59
  27  0.377  0.851  0.354-  70 2.53  54 2.58  59 2.70  73 2.71
  28  0.623  0.851  0.646-  66 2.53  54 2.58  71 2.70  79 2.71
  29  0.871  0.646  0.629-  80 2.51  55 2.53  71 2.54
  30  0.623  0.652  0.368-  67 2.44  74 2.55  55 2.57  70 2.92
  31  0.630  0.350  0.354-  72 2.51  74 2.52  55 2.57  65 2.83
  32  0.870  0.343  0.616-  80 2.43  55 2.52  68 2.53
  33  0.112  0.990  0.384-  62 2.42  50 2.52  57 2.55
  34  0.888  0.990  0.616-  58 2.42  50 2.52  61 2.55
  35  0.357  0.491  0.378-  59 2.57  51 2.57  74 2.62  64 2.66
  36  0.140  0.514  0.629-  60 2.51  63 2.52  80 2.53  51 2.60
  37  0.125  0.989  0.881-  58 2.30  75 2.30  61 2.30
  38  0.875  0.989  0.119-  62 2.30  77 2.30  57 2.30
  39  0.360  0.521  0.884-  49 2.50  60 2.52  63 2.60
  40  0.123  0.508  0.112-  56 2.62  49 2.66  59 2.74
  41  0.619  0.993  0.391-  65 2.45  70 2.46  54 2.52
  42  0.381  0.993  0.609-  69 2.45  66 2.46  54 2.52
  43  0.860  0.514  0.371-  72 2.51  67 2.52  78 2.53  55 2.60
  44  0.643  0.491  0.622-  71 2.57  55 2.57  76 2.62  68 2.66
  45  0.611  0.003  0.879-  66 2.47  69 2.55  79 2.56  52 2.56
  46  0.389  0.003  0.121-  70 2.47  65 2.55  73 2.56  52 2.56
  47  0.877  0.508  0.888-  56 2.62  53 2.66  71 2.74
  48  0.640  0.521  0.116-  53 2.50  72 2.52  67 2.60
  49  0.256  0.496  0.005-   8 2.49  39 2.50   7 2.54   5 2.55  40 2.66   6 2.69  60 3.59  74 3.61
                            56 4.01
  50  0.000  0.001  0.500-  33 2.52  34 2.52  10 2.55   9 2.55  11 2.66  12 2.66  58 3.61  62 3.61

  51  0.250  0.498  0.504-  15 2.52  14 2.53  35 2.57  16 2.57  13 2.57  36 2.60  78 3.54  63 3.60
                            60 3.65
  52  0.500  0.003  0.000-  17 2.55  18 2.55  46 2.56  45 2.56  20 2.58  19 2.58
  53  0.744  0.496  0.995-  23 2.49  48 2.50  24 2.54  22 2.55  47 2.66  21 2.69  72 3.59  76 3.61
                            56 4.01
  54  0.500  0.995  0.500-  41 2.52  42 2.52  27 2.58  28 2.58  26 2.59  25 2.59  66 3.63  70 3.63
                            69 3.66  65 3.66
  55  0.750  0.498  0.496-  32 2.52  29 2.53  44 2.57  31 2.57  30 2.57  43 2.60  80 3.54  67 3.60
                            72 3.65
  56  0.000  0.680  0.000-   4 2.48   3 2.48  21 2.61   6 2.61  40 2.62  47 2.62  49 4.01  53 4.01

  57  0.999  0.123  0.226-  38 2.30   1 2.33  33 2.55  10 2.81  62 3.01
  58  0.013  0.862  0.752-  37 2.30  34 2.42  12 2.48   3 2.67   6 2.90  61 3.01  75 3.20  50 3.61

  59  0.251  0.665  0.264-  14 2.54   4 2.55  35 2.57   5 2.58  27 2.70  40 2.74
  60  0.254  0.359  0.758-   7 2.50  16 2.51  36 2.51  39 2.52  18 2.92  49 3.59  51 3.65
  61  0.001  0.123  0.774-  37 2.30   2 2.33  34 2.55   9 2.81  58 3.01
  62  0.987  0.862  0.248-  38 2.30  33 2.42  11 2.48   4 2.67  21 2.90  57 3.01  77 3.20  50 3.61

  63  0.261  0.677  0.735-  13 2.44  36 2.52  12 2.60  39 2.60  19 2.69  51 3.60
  64  0.246  0.304  0.275-   1 2.31  15 2.53  26 2.53  35 2.66   8 2.84  73 3.28
  65  0.517  0.144  0.260-  41 2.45  17 2.49  26 2.51  46 2.55  31 2.83  54 3.66
  66  0.498  0.856  0.749-  42 2.46  45 2.47  19 2.51  28 2.53  13 2.92  54 3.63
  67  0.739  0.677  0.265-  30 2.44  43 2.52  11 2.60  48 2.60  20 2.69  55 3.60
  68  0.754  0.304  0.725-   2 2.31  32 2.53  25 2.53  44 2.66  23 2.84  79 3.28
  69  0.483  0.144  0.740-  42 2.45  18 2.49  25 2.51  45 2.55  16 2.83  54 3.66
  70  0.502  0.856  0.251-  41 2.46  46 2.47  20 2.51  27 2.53  30 2.92  54 3.63
  71  0.749  0.665  0.736-  29 2.54   3 2.55  44 2.57  22 2.58  28 2.70  47 2.74
  72  0.746  0.359  0.242-  24 2.50  31 2.51  43 2.51  48 2.52  17 2.92  53 3.59  55 3.65
  73  0.261  0.026  0.222-   1 2.29  26 2.53  46 2.56  27 2.71  64 3.28
  74  0.482  0.498  0.268-   8 2.50   5 2.52  31 2.52  30 2.55  35 2.62  49 3.61
  75  0.226  0.001  0.774-  37 2.30   9 2.49  12 2.57  18 2.62  19 2.66  58 3.20
  76  0.518  0.498  0.732-  23 2.50  22 2.52  16 2.52  13 2.55  44 2.62  53 3.61
  77  0.774  0.001  0.226-  38 2.30  10 2.49  11 2.57  17 2.62  20 2.66  62 3.20
  78  0.996  0.487  0.282-  15 2.43  14 2.51  24 2.51  43 2.53  21 2.87  51 3.54
  79  0.739  0.026  0.778-   2 2.29  25 2.53  45 2.56  28 2.71  68 3.28
  80  0.004  0.487  0.718-  32 2.43  29 2.51   7 2.51  36 2.53   6 2.87  55 3.54
 
  LATTYP: Found a simple monoclinic cell.
 ALAT       =    14.7173879065
 B/A-ratio  =     0.7784038818
 C/A-ratio  =     1.6560200102
 COS(beta)  =    -0.8915580476
  
  Lattice vectors:
  
 A1 = (  -8.6672408566,   0.0000000000, -11.8945551713)
 A2 = (   0.0000000000, -11.4560718766,   0.0000000000)
 A3 = (   3.8754638028,   0.0000000000,  24.0621953506)


Analysis of symmetry for initial positions (statically):
=====================================================================
 Subroutine PRICEL returns:
 Original cell was already a primitive cell.
 

 Routine SETGRP: Setting up the symmetry group for a 
 simple monoclinic supercell.


 Subroutine GETGRP returns: Found  2 space group operations
 (whereof  2 operations were pure point group operations)
 out of a pool of  4 trial point group operations.


The static configuration has the point symmetry C_2 .


Analysis of symmetry for dynamics (positions and initial velocities):
=====================================================================
 Subroutine PRICEL returns:
 Original cell was already a primitive cell.
 

 Routine SETGRP: Setting up the symmetry group for a 
 simple monoclinic supercell.


 Subroutine GETGRP returns: Found  2 space group operations
 (whereof  2 operations were pure point group operations)
 out of a pool of  4 trial point group operations.


The dynamic configuration has the point symmetry C_2 .


 Subroutine INISYM returns: Found  2 space group operations
 (whereof  2 operations are pure point group operations),
 and found     1 'primitive' translations

 
 
 KPOINTS: Pymatgen with grid density = 711 / numbe

Automatic generation of k-mesh.
Space group operators:
 irot       det(A)        alpha          n_x          n_y          n_z        tau_x        tau_y        tau_z
    1     1.000000     0.000000     1.000000     0.000000     0.000000     0.000000     0.000000     0.000000
    2     1.000000   180.000000     0.000000     1.000000     0.000000     0.000000     0.000000     0.000000
 
 Subroutine IBZKPT returns following result:
 ===========================================
 
 Found      1 irreducible k-points:
 
 Following reciprocal coordinates:
            Coordinates               Weight
  0.000000  0.000000  0.000000      1.000000
 
 Following cartesian coordinates:
            Coordinates               Weight
  0.000000  0.000000  0.000000      1.000000
 


--------------------------------------------------------------------------------------------------------




 Dimension of arrays:
   k-points           NKPTS =      1   k-points in BZ     NKDIM =      1   number of bands    NBANDS=    240
   number of dos      NEDOS =    301   number of ions     NIONS =     80
   non local maximal  LDIM  =      5   non local SUM 2l+1 LMDIM =     13
   total plane-waves  NPLWV = 882000
   max r-space proj   IRMAX =      1   max aug-charges    IRDMAX=  53656
   dimension x,y,z NGX =   100 NGY =   90 NGZ =   98
   dimension x,y,z NGXF=   200 NGYF=  180 NGZF=  196
   support grid    NGXF=   200 NGYF=  180 NGZF=  196
   ions per type =              48   8  24
   NGX,Y,Z   is equivalent  to a cutoff of  12.35, 13.06, 12.46 a.u.
   NGXF,Y,Z  is equivalent  to a cutoff of  24.70, 26.12, 24.92 a.u.

 SYSTEM =  unknown system                          
 POSCAR =  Li3InCl6                                

 Startparameter for this run:
   NWRITE =      2    write-flag & timer
   PREC   = accura    normal or accurate (medium, high low for compatibility)
   ISTART =      0    job   : 0-new  1-cont  2-samecut
   ICHARG =      2    charge: 1-file 2-atom 10-const
   ISPIN  =      1    spin polarized calculation?
   LNONCOLLINEAR =      F non collinear calculations
   LSORBIT =      F    spin-orbit coupling
   INIWAV =      1    electr: 0-lowe 1-rand  2-diag
   LASPH  =      T    aspherical Exc in radial PAW
   METAGGA=      F    non-selfconsistent MetaGGA calc.

 Electronic Relaxation 1
   ENCUT  =  520.0 eV  38.22 Ry    6.18 a.u.  25.03 21.30 24.31*2*pi/ulx,y,z
   ENINI  =  520.0     initial cutoff
   ENAUG  =  356.2 eV  augmentation charge cutoff
   NELM   =    100;   NELMIN=  2; NELMDL= -5     # of ELM steps 
   EDIFF  = 0.1E-04   stopping-criterion for ELM
   LREAL  =      F    real-space projection
   NLSPLINE    = F    spline interpolate recip. space projectors
   LCOMPAT=      F    compatible to vasp.4.4
   GGA_COMPAT  = T    GGA compatible to vasp.4.4-vasp.4.6
   LMAXPAW     = -100 max onsite density
   LMAXMIX     =    2 max onsite mixed and CHGCAR
   VOSKOWN=      0    Vosko Wilk Nusair interpolation
   ROPT   =    0.00000   0.00000   0.00000
 Ionic relaxation
   EDIFFG = 0.1E-03   stopping-criterion for IOM
   NSW    =    300    number of steps for IOM
   NBLOCK =      1;   KBLOCK =    300    inner block; outer block 
   IBRION =      2    ionic relax: 0-MD 1-quasi-New 2-CG
   NFREE  =      1    steps in history (QN), initial steepest desc. (CG)
   ISIF   =      2    stress and relaxation
   IWAVPR =     11    prediction:  0-non 1-charg 2-wave 3-comb
   ISYM   =      2    0-nonsym 1-usesym 2-fastsym
   LCORR  =      T    Harris-Foulkes like correction to forces

   POTIM  = 0.5000    time-step for ionic-motion
   TEIN   =    0.0    initial temperature
   TEBEG  =    0.0;   TEEND  =   0.0 temperature during run
   SMASS  =  -3.00    Nose mass-parameter (am)
   estimated Nose-frequenzy (Omega)   =  0.10E-29 period in steps =****** mass=  -0.414E-26a.u.
   SCALEE = 1.0000    scale energy and forces
   NPACO  =    256;   APACO  = 16.0  distance and # of slots for P.C.
   PSTRESS=    0.0 pullay stress

  Mass of Ions in am
   POMASS =  35.45114.82  7.01
  Ionic Valenz
   ZVAL   =   7.00  3.00  1.00
  Atomic Wigner-Seitz radii
   RWIGS  =  -1.00 -1.00 -1.00
  virtual crystal weights 
   VCA    =   1.00  1.00  1.00
   NELECT =     384.0000    total number of electrons
   NUPDOWN=      -1.0000    fix difference up-down

 DOS related values:
   EMIN   =  10.00;   EMAX   =-10.00  energy-range for DOS
   EFERMI =   0.00
   ISMEAR =     0;   SIGMA  =   0.10  broadening in eV -4-tet -1-fermi 0-gaus

 Electronic relaxation 2 (details)
   IALGO  =     38    algorithm
   LDIAG  =      T    sub-space diagonalisation (order eigenvalues)
   LSUBROT=      F    optimize rotation matrix (better conditioning)
   TURBO    =      0    0=normal 1=particle mesh
   IRESTART =      0    0=no restart 2=restart with 2 vectors
   NREBOOT  =      0    no. of reboots
   NMIN     =      0    reboot dimension
   EREF     =   0.00    reference energy to select bands
   IMIX   =      4    mixing-type and parameters
     AMIX     =   0.20;   BMIX     =  0.00
     AMIX_MAG =   0.80;   BMIX_MAG =  0.00
     AMIN     =   0.10
     WC   =   100.;   INIMIX=   1;  MIXPRE=   1;  MAXMIX= -45

 Intra band minimization:
   WEIMIN = 0.0010     energy-eigenvalue tresh-hold
   EBREAK =  0.10E-07  absolut break condition
   DEPER  =   0.30     relativ break condition  

   TIME   =   0.40     timestep for ELM

  volume/ion in A,a.u.               =      23.26       156.99
  Fermi-wavevector in a.u.,A,eV,Ry     =   0.967375  1.828073 12.732525  0.935814
  Thomas-Fermi vector in A             =   2.097255
 
 Write flags
   LWAVE        =      F    write WAVECAR
   LDOWNSAMPLE  =      F    k-point downsampling of WAVECAR
   LCHARG       =      F    write CHGCAR
   LVTOT        =      F    write LOCPOT, total local potential
   LVHAR        =      F    write LOCPOT, Hartree potential only
   LELF         =      F    write electronic localiz. function (ELF)
   LORBIT       =     11    0 simple, 1 ext, 2 COOP (PROOUT), +10 PAW based schemes


 Dipole corrections
   LMONO  =      F    monopole corrections only (constant potential shift)
   LDIPOL =      F    correct potential (dipole corrections)
   IDIPOL =      0    1-x, 2-y, 3-z, 4-all directions 
   EPSILON=  1.0000000 bulk dielectric constant

 Exchange correlation treatment:
   GGA     =    --    GGA type
   LEXCH   =     8    internal setting for exchange type
   VOSKOWN=      0    Vosko Wilk Nusair interpolation
   LHFCALC =     F    Hartree Fock is set to
   LHFONE  =     F    Hartree Fock one center treatment
   AEXX    =    0.0000 exact exchange contribution

 Linear response parameters
   LEPSILON=     F    determine dielectric tensor
   LRPA    =     F    only Hartree local field effects (RPA)
   LNABLA  =     F    use nabla operator in PAW spheres
   LVEL    =     F    velocity operator in full k-point grid
   LINTERFAST=   F  fast interpolation
   KINTER  =     0    interpolate to denser k-point grid
   CSHIFT  =0.1000    complex shift for real part using Kramers Kronig
   OMEGAMAX=  -1.0    maximum frequency
   DEG_THRESHOLD= 0.2000000E-02 threshold for treating states as degnerate
   RTIME   =   -0.100 relaxation time in fs
  (WPLASMAI=    0.000 imaginary part of plasma frequency in eV, 0.658/RTIME)
   DFIELD  = 0.0000000 0.0000000 0.0000000 field for delta impulse in time
 
 Orbital magnetization related:
   ORBITALMAG=     F  switch on orbital magnetization
   LCHIMAG   =     F  perturbation theory with respect to B field
   DQ        =  0.001000  dq finite difference perturbation B field
   LLRAUG    =     F  two centre corrections for induced B field



--------------------------------------------------------------------------------------------------------


 conjugate gradient relaxation of ions
 charge density and potential will be updated during run
 non-spin polarized calculation
 Variant of blocked Davidson
 Davidson routine will perform the subspace rotation
 perform sub-space diagonalisation
    after iterative eigenvector-optimisation
 modified Broyden-mixing scheme, WC =      100.0
 initial mixing is a Kerker type mixing with AMIX =  0.2000 and BMIX =      0.0000
 Hartree-type preconditioning will be used
 using additional bands           48
 reciprocal scheme for non local part
 use partial core corrections
 calculate Harris-corrections to forces 
   (improved forces if not selfconsistent)
 use gradient corrections 
 use of overlap-Matrix (Vanderbilt PP)
 Gauss-broadening in eV      SIGMA  =   0.10


--------------------------------------------------------------------------------------------------------


  energy-cutoff  :      520.00
  volume of cell :     1861.11
      direct lattice vectors                 reciprocal lattice vectors
    13.459017910  0.000000000 -0.273085008     0.074898101  0.000000000  0.029495859
     0.000000000 11.456071877  0.000000000     0.000000000  0.087289955  0.000000000
    -4.791777054  0.000000000 12.167640179     0.001680979  0.000000000  0.082847197

  length of vectors
    13.461788088 11.456071877 13.077178399     0.080496777  0.087289955  0.082864248


 
 k-points in units of 2pi/SCALE and weight: Pymatgen with grid density = 711 / numbe
   0.00000000  0.00000000  0.00000000       1.000
 
 k-points in reciprocal lattice and weights: Pymatgen with grid density = 711 / numbe
   0.00000000  0.00000000  0.00000000       1.000
 
 position of ions in fractional coordinates (direct lattice) 
   0.13195966  0.16764128  0.15843874
   0.86804034  0.16764128  0.84156124
   0.88222739  0.81588349  0.85736949
   0.11777261  0.81588349  0.14263048
   0.36293732  0.65123713  0.14284449
   0.11676913  0.65878568  0.88155295
   0.13294140  0.35537424  0.86227790
   0.36468270  0.34687200  0.13965065
   0.11762259  0.15089114  0.63867553
   0.88237741  0.15089114  0.36132450
   0.87769770  0.83968823  0.36202999
   0.12230230  0.83968823  0.63797004
   0.37746400  0.65167152  0.63224079
   0.12878820  0.64646987  0.37065239
   0.12989118  0.34286954  0.38363636
   0.36997034  0.35040541  0.64592554
   0.61929958  0.15366755  0.13673909
   0.38070042  0.15366755  0.86326089
   0.38460164  0.84803323  0.86279352
   0.61539836  0.84803323  0.13720646
   0.88323087  0.65878568  0.11844703
   0.63706268  0.65123713  0.85715549
   0.63531730  0.34687200  0.86034933
   0.86705860  0.35537424  0.13772208
   0.60470622  0.15761384  0.63625323
   0.39529378  0.15761384  0.36374679
   0.37680517  0.85135900  0.35380281
   0.62319483  0.85135900  0.64619721
   0.87121180  0.64646987  0.62934764
   0.62253600  0.65167152  0.36775924
   0.63002966  0.35040541  0.35407448
   0.87010882  0.34286954  0.61636367
   0.11205946  0.98960051  0.38418421
   0.88794054  0.98960051  0.61581582
   0.35674898  0.49120180  0.37842035
   0.14020792  0.51374067  0.62912659
   0.12533737  0.98918510  0.88108214
   0.87466263  0.98918510  0.11891783
   0.35968980  0.52111915  0.88384742
   0.12295693  0.50835750  0.11189215
   0.61868786  0.99278715  0.39083965
   0.38131214  0.99278715  0.60916038
   0.85979208  0.51374067  0.37087344
   0.64325102  0.49120180  0.62157968
   0.61148120  0.00311636  0.87931353
   0.38851880  0.00311636  0.12068644
   0.87704307  0.50835750  0.88810782
   0.64031020  0.52111915  0.11615255
   0.25554787  0.49625747  0.00476789
   0.00000000  0.00122969  0.50000000
   0.25047698  0.49846005  0.50447059
   0.50000000  0.00343002  0.00000000
   0.74445213  0.49625747  0.99523211
   0.50000000  0.99488959  0.50000000
   0.74952302  0.49846005  0.49552941
   0.00000000  0.67964811  0.00000000
   0.99946975  0.12256327  0.22556443
   0.01298647  0.86201589  0.75241055
   0.25071422  0.66482144  0.26398146
   0.25433275  0.35944181  0.75753571
   0.00053025  0.12256327  0.77443557
   0.98701353  0.86201589  0.24758945
   0.26102589  0.67711846  0.73513831
   0.24600485  0.30414830  0.27480320
   0.51721665  0.14389849  0.25966934
   0.49816460  0.85568418  0.74892272
   0.73897411  0.67711846  0.26486169
   0.75399515  0.30414830  0.72519680
   0.48278335  0.14389849  0.74033066
   0.50183540  0.85568418  0.25107728
   0.74928578  0.66482144  0.73601854
   0.74566725  0.35944181  0.24246429
   0.26087131  0.02590986  0.22202902
   0.48237550  0.49753714  0.26777490
   0.22595220  0.00140741  0.77361259
   0.51762450  0.49753714  0.73222510
   0.77404780  0.00140741  0.22638741
   0.99556076  0.48691613  0.28241793
   0.73912869  0.02590986  0.77797098
   0.00443924  0.48691613  0.71758207
 
 position of ions in cartesian coordinates  (Angst):
   1.01684427  1.92051054  1.89178941
   7.65039669  1.92051054 10.00276549
   7.76559077  9.34681988 10.19124044
   0.90165019  9.34681988  1.70331446
   4.20030091  7.46061942  1.63896762
  -2.65260745  7.54709613 10.69453121
  -2.34258281  4.07119280 10.45558292
   4.23909622  3.97379062  1.59962951
  -1.47730616  1.72861977  7.73905312
  10.14454687  1.72861977  4.15550241
  10.07818205  9.61952873  4.16536453
  -1.41094134  9.61952873  7.72919099
   2.05073777  7.46559572  7.58979869
  -0.04272087  7.40600528  4.47479477
  -0.09009216  3.92793805  4.63247789
   1.88430621  4.01426959  7.75835626
   7.67994092  1.76042653  1.49467060
   0.98730005  1.76042653 10.39988430
   1.04204617  9.71512964 10.39313217
   7.62519479  9.71512964  1.50142273
  11.31984842  7.54709613  1.20002369
   4.46694005  7.46061942 10.25558728
   4.42814475  3.97379062 10.29492539
  11.00982377  4.07119280  1.43897198
   5.08996816  1.80563552  7.57656421
   3.57727256  1.80563552  4.31799131
   3.37608330  9.75322990  4.20204549
   5.29115742  9.75322990  7.69251003
   8.70996159  7.40600528  7.41976075
   6.61650295  7.46559572  4.30475684
   6.78293451  4.01426959  4.13619926
   8.75733288  3.92793805  7.26207763
  -0.33271479 11.33693454  4.64401347
   8.99995550 11.33693454  7.25054207
   2.98818503  5.62724314  4.50705984
  -1.12757342  5.88545000  7.61669735
  -2.53503121 11.33217559 10.68646266
  11.20227221 11.33217559  1.20809215
   0.60587164  5.96997849 10.65611154
   1.11871726  5.82378008  1.32788569
   6.45411458 11.37344096  4.58664182
   2.21312613 11.37344096  7.30791372
   9.79481414  5.88545000  4.27785818
   5.67905568  5.62724314  7.38749570
   4.01646204  0.03570122 10.53218431
   4.65077896  0.03570122  1.36237050
   7.54852374  5.82378008 10.56666911
   8.06136936  5.96997849  1.23844327
   3.41657669  5.68516119 -0.01177237
  -2.39588853  0.01408743  6.08382009
   0.95386349  5.71039416  6.06981517
   6.72950896  0.03929453 -0.13654250
   5.25066417  5.68516119 11.90632755
   4.33362043 11.39752662  5.94727759
   7.71337737  5.71039416  5.82474000
   0.00000000  7.78609759  0.00000000
  12.37102682  1.40409359  2.47164657
  -3.43059852  9.87531602  9.15151447
   2.10942689  7.61624219  3.14356515
  -0.20687321  4.11779125  9.14796748
  -3.70378596  1.40409359  9.42290860
  12.09783937  9.87531602  2.74304070
  -0.00946676  7.75711773  8.87361618
   1.99418809  3.48434479  3.27652619
   5.71695066  1.64851140  3.01831893
   3.11613559  9.80277952  8.97658085
   8.67670761  7.75711773  3.02093900
   6.67305277  3.48434479  8.61802898
   2.95029020  1.64851140  8.87623625
   5.55110527  9.80277952  2.91797432
   6.55781397  7.61624219  8.75099002
   8.87411407  4.11779125  2.74658769
   2.44715806  0.29682527  2.63032914
   5.20918283  5.69982119  3.12645913
  -0.66588435  0.01612342  9.35133549
   3.45805802  5.69982119  8.76809604
   9.33312520  0.01612342  2.54321968
  12.04598631  5.57814624  3.16448702
   6.22008280  0.29682527  9.26422604
  -3.37874545  5.57814624  8.73006815
 


--------------------------------------------------------------------------------------------------------


 k-point  1 :   0.0000 0.0000 0.0000  plane waves:   50117

 maximum and minimum number of plane-waves per node :     50117    50117

 maximum number of plane-waves:     50117
 maximum index in each direction: 
   IXMAX=   25   IYMAX=   21   IZMAX=   24
   IXMIN=  -25   IYMIN=  -21   IZMIN=  -24


 serial   3D FFT for wavefunctions
 parallel 3D FFT for charge:
    minimum data exchange during FFTs selected (reduces bandwidth)


 total amount of memory used by VASP MPI-rank0   171742. kBytes
=======================================================================

   base      :      30000. kBytes
   nonl-proj :      79791. kBytes
   fftplans  :       9622. kBytes
   grid      :      46809. kBytes
   one-center:        648. kBytes
   wavefun   :       4872. kBytes
 
     INWAV:  cpu time    0.0001: real time    0.0004
 Broyden mixing: mesh for mixing (old mesh)
   NGX = 51   NGY = 43   NGZ = 49
  (NGX  =200   NGY  =180   NGZ  =196)
  gives a total of 107457 points

 initial charge density was supplied:
 charge density of overlapping atoms calculated
 number of electron     384.0000000 magnetization 
 keeping initial charge density in first step


--------------------------------------------------------------------------------------------------------


 Maximum index for augmentation-charges         1628 (set IRDMAX)


--------------------------------------------------------------------------------------------------------


 First call to EWALD:  gamma=   0.144
 Maximum number of real-space cells 3x 3x 3
 Maximum number of reciprocal cells 3x 3x 3

    FEWALD:  cpu time    0.0035: real time    0.0035


--------------------------------------- Iteration      1(   1)  ---------------------------------------


    POTLOK:  cpu time    0.1547: real time    0.2012
    SETDIJ:  cpu time    0.1593: real time    0.1594
     EDDAV:  cpu time    5.1950: real time    5.5867
       DOS:  cpu time    0.0012: real time    0.0013
    --------------------------------------------
      LOOP:  cpu time    5.5102: real time    5.9487

 eigenvalue-minimisations  :   480
 total energy-change (2. order) : 0.2691858E+04  (-0.1577142E+05)
 number of electron     384.0000000 magnetization 
 augmentation part      384.0000000 magnetization 

 Free energy of the ion-electron system (eV)
  ---------------------------------------------------
  alpha Z        PSCENC =       310.04809462
  Ewald energy   TEWEN  =    -15420.61730163
  -Hartree energ DENC   =     -4301.79561401
  -exchange      EXHF   =         0.00000000
  -V(xc)+E(xc)   XCENC  =       418.09658943
  PAW double counting   =     10286.17342998    -9683.19861744
  entropy T*S    EENTRO =        -0.08263366
  eigenvalues    EBANDS =       858.97486410
  atomic energy  EATOM  =     20224.25915541
  Solvation  Ediel_sol  =         0.00000000
  ---------------------------------------------------
  free energy    TOTEN  =      2691.85796681 eV

  energy without entropy =     2691.94060046  energy(sigma->0) =     2691.89928363


--------------------------------------------------------------------------------------------------------




--------------------------------------- Iteration      1(   2)  ---------------------------------------


     EDDAV:  cpu time    6.4931: real time    6.5472
       DOS:  cpu time    0.0002: real time    0.0001
    --------------------------------------------
      LOOP:  cpu time    6.4932: real time    6.5474

 eigenvalue-minimisations  :   640
 total energy-change (2. order) :-0.2688421E+04  (-0.2640017E+04)
 number of electron     384.0000000 magnetization 
 augmentation part      384.0000000 magnetization 

 Free energy of the ion-electron system (eV)
  ---------------------------------------------------
  alpha Z        PSCENC =       310.04809462
  Ewald energy   TEWEN  =    -15420.61730163
  -Hartree energ DENC   =     -4301.79561401
  -exchange      EXHF   =         0.00000000
  -V(xc)+E(xc)   XCENC  =       418.09658943
  PAW double counting   =     10286.17342998    -9683.19861744
  entropy T*S    EENTRO =        -0.00000000
  eigenvalues    EBANDS =     -1829.52896671
  atomic energy  EATOM  =     20224.25915541
  Solvation  Ediel_sol  =         0.00000000
  ---------------------------------------------------
  free energy    TOTEN  =         3.43676966 eV

  energy without entropy =        3.43676966  energy(sigma->0) =        3.43676966


--------------------------------------------------------------------------------------------------------




--------------------------------------- Iteration      1(   3)  ---------------------------------------


     EDDAV:  cpu time    6.1433: real time    6.1604
       DOS:  cpu time    0.0001: real time    0.0001
    --------------------------------------------
      LOOP:  cpu time    6.1434: real time    6.1606

 eigenvalue-minimisations  :   600
 total energy-change (2. order) :-0.2855500E+03  (-0.2847739E+03)
 number of electron     384.0000000 magnetization 
 augmentation part      384.0000000 magnetization 

 Free energy of the ion-electron system (eV)
  ---------------------------------------------------
  alpha Z        PSCENC =       310.04809462
  Ewald energy   TEWEN  =    -15420.61730163
  -Hartree energ DENC   =     -4301.79561401
  -exchange      EXHF   =         0.00000000
  -V(xc)+E(xc)   XCENC  =       418.09658943
  PAW double counting   =     10286.17342998    -9683.19861744
  entropy T*S    EENTRO =        -0.00000000
  eigenvalues    EBANDS =     -2115.07894860
  atomic energy  EATOM  =     20224.25915541
  Solvation  Ediel_sol  =         0.00000000
  ---------------------------------------------------
  free energy    TOTEN  =      -282.11321224 eV

  energy without entropy =     -282.11321223  energy(sigma->0) =     -282.11321223


--------------------------------------------------------------------------------------------------------




--------------------------------------- Iteration      1(   4)  ---------------------------------------


     EDDAV:  cpu time    6.1520: real time    6.1607
       DOS:  cpu time    0.0002: real time    0.0002
    --------------------------------------------
      LOOP:  cpu time    6.1521: real time    6.1609

 eigenvalue-minimisations  :   600
 total energy-change (2. order) :-0.4775879E+01  (-0.4767761E+01)
 number of electron     384.0000000 magnetization 
 augmentation part      384.0000000 magnetization 

 Free energy of the ion-electron system (eV)
  ---------------------------------------------------
  alpha Z        PSCENC =       310.04809462
  Ewald energy   TEWEN  =    -15420.61730163
  -Hartree energ DENC   =     -4301.79561401
  -exchange      EXHF   =         0.00000000
  -V(xc)+E(xc)   XCENC  =       418.09658943
  PAW double counting   =     10286.17342998    -9683.19861744
  entropy T*S    EENTRO =        -0.00000000
  eigenvalues    EBANDS =     -2119.85482806
  atomic energy  EATOM  =     20224.25915541
  Solvation  Ediel_sol  =         0.00000000
  ---------------------------------------------------
  free energy    TOTEN  =      -286.88909169 eV

  energy without entropy =     -286.88909169  energy(sigma->0) =     -286.88909169


--------------------------------------------------------------------------------------------------------




--------------------------------------- Iteration      1(   5)  ---------------------------------------


     EDDAV:  cpu time    6.1517: real time    6.1610
       DOS:  cpu time    0.0002: real time    0.0002
    CHARGE:  cpu time    0.2251: real time    0.2251
    MIXING:  cpu time    0.0189: real time    0.0190
    --------------------------------------------
      LOOP:  cpu time    6.3959: real time    6.4054

 eigenvalue-minimisations  :   600
 total energy-change (2. order) :-0.1138527E+00  (-0.1138169E+00)
 number of electron     383.9999987 magnetization 
 augmentation part      -49.3341133 magnetization 

 Broyden mixing:
  rms(total) = 0.13299E+01    rms(broyden)= 0.13299E+01
  rms(prec ) = 0.19743E+01
  weight for this iteration     100.00

 Free energy of the ion-electron system (eV)
  ---------------------------------------------------
  alpha Z        PSCENC =       310.04809462
  Ewald energy   TEWEN  =    -15420.61730163
  -Hartree energ DENC   =     -4301.79561401
  -exchange      EXHF   =         0.00000000
  -V(xc)+E(xc)   XCENC  =       418.09658943
  PAW double counting   =     10286.17342998    -9683.19861744
  entropy T*S    EENTRO =        -0.00000000
  eigenvalues    EBANDS =     -2119.96868073
  atomic energy  EATOM  =     20224.25915541
  Solvation  Ediel_sol  =         0.00000000
  ---------------------------------------------------
  free energy    TOTEN  =      -287.00294437 eV

  energy without entropy =     -287.00294437  energy(sigma->0) =     -287.00294437


--------------------------------------------------------------------------------------------------------




--------------------------------------- Iteration      1(   6)  ---------------------------------------


    POTLOK:  cpu time    0.1348: real time    0.1351
    SETDIJ:  cpu time    0.1583: real time    0.1584
     EDDAV:  cpu time    6.5590: real time    6.5668
       DOS:  cpu time    0.0002: real time    0.0002
    CHARGE:  cpu time    0.2230: real time    0.2231
    MIXING:  cpu time    0.0055: real time    0.1017
    --------------------------------------------
      LOOP:  cpu time    7.0808: real time    7.1852

 eigenvalue-minimisations  :   640
 total energy-change (2. order) : 0.9264769E+01  (-0.8952441E+00)
 number of electron     383.9999988 magnetization 
 augmentation part      -49.3946309 magnetization 

 Broyden mixing:
  rms(total) = 0.87679E+00    rms(broyden)= 0.87679E+00
  rms(prec ) = 0.12393E+01
  weight for this iteration     100.00

 eigenvalues of (default mixing * dielectric matrix)
  average eigenvalue GAMMA=   2.2658
  2.2658

 Free energy of the ion-electron system (eV)
  ---------------------------------------------------
  alpha Z        PSCENC =       310.04809462
  Ewald energy   TEWEN  =    -15420.61730163
  -Hartree energ DENC   =     -4401.08302317
  -exchange      EXHF   =         0.00000000
  -V(xc)+E(xc)   XCENC  =       427.55884422
  PAW double counting   =     10574.98987271    -9975.58224286
  entropy T*S    EENTRO =        -0.00000000
  eigenvalues    EBANDS =     -2017.31157494
  atomic energy  EATOM  =     20224.25915541
  Solvation  Ediel_sol  =         0.00000000
  ---------------------------------------------------
  free energy    TOTEN  =      -277.73817565 eV

  energy without entropy =     -277.73817565  energy(sigma->0) =     -277.73817565


--------------------------------------------------------------------------------------------------------




--------------------------------------- Iteration      1(   7)  ---------------------------------------


    POTLOK:  cpu time    0.1304: real time    0.1355
    SETDIJ:  cpu time    0.1581: real time    0.1581
     EDDAV:  cpu time    5.8116: real time    5.8184
       DOS:  cpu time    0.0002: real time    0.0002
    CHARGE:  cpu time    0.2237: real time    0.2238
    MIXING:  cpu time    0.0050: real time    0.0202
    --------------------------------------------
      LOOP:  cpu time    6.3290: real time    6.3562

 eigenvalue-minimisations  :   560
 total energy-change (2. order) : 0.3768907E+01  (-0.1771636E+01)
 number of electron     383.9999988 magnetization 
 augmentation part      -49.3984189 magnetization 

 Broyden mixing:
  rms(total) = 0.42612E+00    rms(broyden)= 0.42612E+00
  rms(prec ) = 0.52006E+00
  weight for this iteration     100.00

 eigenvalues of (default mixing * dielectric matrix)
  average eigenvalue GAMMA=   2.0954
  2.0954  2.0954

 Free energy of the ion-electron system (eV)
  ---------------------------------------------------
  alpha Z        PSCENC =       310.04809462
  Ewald energy   TEWEN  =    -15420.61730163
  -Hartree energ DENC   =     -4540.68939318
  -exchange      EXHF   =         0.00000000
  -V(xc)+E(xc)   XCENC  =       441.29705480
  PAW double counting   =     11008.08826567   -10413.93204069
  entropy T*S    EENTRO =        -0.00000000
  eigenvalues    EBANDS =     -1882.42310340
  atomic energy  EATOM  =     20224.25915541
  Solvation  Ediel_sol  =         0.00000000
  ---------------------------------------------------
  free energy    TOTEN  =      -273.96926840 eV

  energy without entropy =     -273.96926840  energy(sigma->0) =     -273.96926840


--------------------------------------------------------------------------------------------------------




--------------------------------------- Iteration      1(   8)  ---------------------------------------


    POTLOK:  cpu time    0.1303: real time    0.1346
    SETDIJ:  cpu time    0.1575: real time    0.1576
     EDDAV:  cpu time    5.8144: real time    5.8211
       DOS:  cpu time    0.0001: real time    0.0001
    CHARGE:  cpu time    0.2240: real time    0.2241
    MIXING:  cpu time    0.0050: real time    0.0055
    --------------------------------------------
      LOOP:  cpu time    6.3314: real time    6.3430

 eigenvalue-minimisations  :   560
 total energy-change (2. order) :-0.9944008E-01  (-0.3230257E+00)
 number of electron     383.9999988 magnetization 
 augmentation part      -49.3336695 magnetization 

 Broyden mixing:
  rms(total) = 0.27300E+00    rms(broyden)= 0.27300E+00
  rms(prec ) = 0.33085E+00
  weight for this iteration     100.00

 eigenvalues of (default mixing * dielectric matrix)
  average eigenvalue GAMMA=   2.5413
  4.3406  1.6416  1.6416

 Free energy of the ion-electron system (eV)
  ---------------------------------------------------
  alpha Z        PSCENC =       310.04809462
  Ewald energy   TEWEN  =    -15420.61730163
  -Hartree energ DENC   =     -4541.67326787
  -exchange      EXHF   =         0.00000000
  -V(xc)+E(xc)   XCENC  =       442.44137983
  PAW double counting   =     11074.13489418   -10480.93320776
  entropy T*S    EENTRO =        -0.00000000
  eigenvalues    EBANDS =     -1881.72845526
  atomic energy  EATOM  =     20224.25915541
  Solvation  Ediel_sol  =         0.00000000
  ---------------------------------------------------
  free energy    TOTEN  =      -274.06870847 eV

  energy without entropy =     -274.06870847  energy(sigma->0) =     -274.06870847


--------------------------------------------------------------------------------------------------------




--------------------------------------- Iteration      1(   9)  ---------------------------------------


    POTLOK:  cpu time    0.1306: real time    0.1348
    SETDIJ:  cpu time    0.1577: real time    0.1578
     EDDAV:  cpu time    6.1534: real time    6.1581
       DOS:  cpu time    0.0001: real time    0.0001
    CHARGE:  cpu time    0.2233: real time    0.2235
    MIXING:  cpu time    0.0047: real time    0.0047
    --------------------------------------------
      LOOP:  cpu time    6.6698: real time    6.6790

 eigenvalue-minimisations  :   600
 total energy-change (2. order) :-0.8066892E-01  (-0.9358681E-01)
 number of electron     383.9999988 magnetization 
 augmentation part      -49.3957427 magnetization 

 Broyden mixing:
  rms(total) = 0.12638E+00    rms(broyden)= 0.12638E+00
  rms(prec ) = 0.16272E+00
  weight for this iteration     100.00

 eigenvalues of (default mixing * dielectric matrix)
  average eigenvalue GAMMA=   2.2610
  4.5526  1.8080  1.8080  0.8754

 Free energy of the ion-electron system (eV)
  ---------------------------------------------------
  alpha Z        PSCENC =       310.04809462
  Ewald energy   TEWEN  =    -15420.61730163
  -Hartree energ DENC   =     -4579.06940243
  -exchange      EXHF   =         0.00000000
  -V(xc)+E(xc)   XCENC  =       447.52197678
  PAW double counting   =     11253.25924815   -10662.40153243
  entropy T*S    EENTRO =        -0.00000000
  eigenvalues    EBANDS =     -1847.14961586
  atomic energy  EATOM  =     20224.25915541
  Solvation  Ediel_sol  =         0.00000000
  ---------------------------------------------------
  free energy    TOTEN  =      -274.14937739 eV

  energy without entropy =     -274.14937739  energy(sigma->0) =     -274.14937739


--------------------------------------------------------------------------------------------------------




--------------------------------------- Iteration      1(  10)  ---------------------------------------


    POTLOK:  cpu time    0.1306: real time    0.1356
    SETDIJ:  cpu time    0.1577: real time    0.1577
     EDDAV:  cpu time    5.8132: real time    5.8185
       DOS:  cpu time    0.0002: real time    0.0002
    CHARGE:  cpu time    0.2231: real time    0.2234
    MIXING:  cpu time    0.0053: real time    0.0053
    --------------------------------------------
      LOOP:  cpu time    6.3301: real time    6.3407

 eigenvalue-minimisations  :   560
 total energy-change (2. order) : 0.5056365E-01  (-0.1585758E-01)
 number of electron     383.9999988 magnetization 
 augmentation part      -49.4169835 magnetization 

 Broyden mixing:
  rms(total) = 0.60296E-01    rms(broyden)= 0.60296E-01
  rms(prec ) = 0.74024E-01
  weight for this iteration     100.00

 eigenvalues of (default mixing * dielectric matrix)
  average eigenvalue GAMMA=   2.3064
  4.5149  2.9855  1.5257  1.5257  0.9802

 Free energy of the ion-electron system (eV)
  ---------------------------------------------------
  alpha Z        PSCENC =       310.04809462
  Ewald energy   TEWEN  =    -15420.61730163
  -Hartree energ DENC   =     -4568.57016776
  -exchange      EXHF   =         0.00000000
  -V(xc)+E(xc)   XCENC  =       446.92315927
  PAW double counting   =     11242.63348563   -10651.76148731
  entropy T*S    EENTRO =        -0.00000000
  eigenvalues    EBANDS =     -1857.01375197
  atomic energy  EATOM  =     20224.25915541
  Solvation  Ediel_sol  =         0.00000000
  ---------------------------------------------------
  free energy    TOTEN  =      -274.09881374 eV

  energy without entropy =     -274.09881374  energy(sigma->0) =     -274.09881374


--------------------------------------------------------------------------------------------------------




--------------------------------------- Iteration      1(  11)  ---------------------------------------


    POTLOK:  cpu time    0.1307: real time    0.1358
    SETDIJ:  cpu time    0.1575: real time    0.1576
     EDDAV:  cpu time    5.8217: real time    5.8275
       DOS:  cpu time    0.0002: real time    0.0002
    CHARGE:  cpu time    0.2237: real time    0.2239
    MIXING:  cpu time    0.0044: real time    0.0044
    --------------------------------------------
      LOOP:  cpu time    6.3382: real time    6.3494

 eigenvalue-minimisations  :   560
 total energy-change (2. order) : 0.2593325E-02  (-0.9888606E-02)
 number of electron     383.9999988 magnetization 
 augmentation part      -49.4321535 magnetization 

 Broyden mixing:
  rms(total) = 0.30427E-01    rms(broyden)= 0.30426E-01
  rms(prec ) = 0.40272E-01
  weight for this iteration     100.00

 eigenvalues of (default mixing * dielectric matrix)
  average eigenvalue GAMMA=   2.2388
  4.9130  2.5083  2.5083  1.4024  1.2092  0.8917

 Free energy of the ion-electron system (eV)
  ---------------------------------------------------
  alpha Z        PSCENC =       310.04809462
  Ewald energy   TEWEN  =    -15420.61730163
  -Hartree energ DENC   =     -4561.03863105
  -exchange      EXHF   =         0.00000000
  -V(xc)+E(xc)   XCENC  =       446.45033280
  PAW double counting   =     11231.98208054   -10641.08387992
  entropy T*S    EENTRO =        -0.00000000
  eigenvalues    EBANDS =     -1864.09607118
  atomic energy  EATOM  =     20224.25915541
  Solvation  Ediel_sol  =         0.00000000
  ---------------------------------------------------
  free energy    TOTEN  =      -274.09622042 eV

  energy without entropy =     -274.09622042  energy(sigma->0) =     -274.09622042


--------------------------------------------------------------------------------------------------------




--------------------------------------- Iteration      1(  12)  ---------------------------------------


    POTLOK:  cpu time    0.1306: real time    0.1350
    SETDIJ:  cpu time    0.1577: real time    0.1577
     EDDAV:  cpu time    5.8215: real time    5.8257
       DOS:  cpu time    0.0002: real time    0.0001
    CHARGE:  cpu time    0.2236: real time    0.2237
    MIXING:  cpu time    0.0046: real time    0.0046
    --------------------------------------------
      LOOP:  cpu time    6.3381: real time    6.3468

 eigenvalue-minimisations  :   560
 total energy-change (2. order) : 0.1624955E-02  (-0.2688283E-02)
 number of electron     383.9999988 magnetization 
 augmentation part      -49.4244519 magnetization 

 Broyden mixing:
  rms(total) = 0.12144E-01    rms(broyden)= 0.12144E-01
  rms(prec ) = 0.14878E-01
  weight for this iteration     100.00

 eigenvalues of (default mixing * dielectric matrix)
  average eigenvalue GAMMA=   2.1916
  4.8614  2.9806  2.3185  1.5760  1.5760  1.0144  1.0144

 Free energy of the ion-electron system (eV)
  ---------------------------------------------------
  alpha Z        PSCENC =       310.04809462
  Ewald energy   TEWEN  =    -15420.61730163
  -Hartree energ DENC   =     -4566.28086632
  -exchange      EXHF   =         0.00000000
  -V(xc)+E(xc)   XCENC  =       446.92990668
  PAW double counting   =     11245.00132961   -10654.26598039
  entropy T*S    EENTRO =        -0.00000000
  eigenvalues    EBANDS =     -1859.16893344
  atomic energy  EATOM  =     20224.25915541
  Solvation  Ediel_sol  =         0.00000000
  ---------------------------------------------------
  free energy    TOTEN  =      -274.09459546 eV

  energy without entropy =     -274.09459546  energy(sigma->0) =     -274.09459546


--------------------------------------------------------------------------------------------------------




--------------------------------------- Iteration      1(  13)  ---------------------------------------


    POTLOK:  cpu time    0.1306: real time    0.1352
    SETDIJ:  cpu time    0.1577: real time    0.1578
     EDDAV:  cpu time    5.8194: real time    5.8252
       DOS:  cpu time    0.0003: real time    0.0002
    CHARGE:  cpu time    0.2232: real time    0.2233
    MIXING:  cpu time    0.0051: real time    0.0051
    --------------------------------------------
      LOOP:  cpu time    6.3364: real time    6.3468

 eigenvalue-minimisations  :   560
 total energy-change (2. order) :-0.2029454E-03  (-0.3558419E-03)
 number of electron     383.9999988 magnetization 
 augmentation part      -49.4199207 magnetization 

 Broyden mixing:
  rms(total) = 0.55167E-02    rms(broyden)= 0.55165E-02
  rms(prec ) = 0.68902E-02
  weight for this iteration     100.00

 eigenvalues of (default mixing * dielectric matrix)
  average eigenvalue GAMMA=   2.1926
  4.9178  3.5287  2.2611  2.2611  1.6134  1.0770  0.9408  0.9408

 Free energy of the ion-electron system (eV)
  ---------------------------------------------------
  alpha Z        PSCENC =       310.04809462
  Ewald energy   TEWEN  =    -15420.61730163
  -Hartree energ DENC   =     -4566.23116182
  -exchange      EXHF   =         0.00000000
  -V(xc)+E(xc)   XCENC  =       446.91243892
  PAW double counting   =     11243.25270964   -10652.51133278
  entropy T*S    EENTRO =        -0.00000000
  eigenvalues    EBANDS =     -1859.20740076
  atomic energy  EATOM  =     20224.25915541
  Solvation  Ediel_sol  =         0.00000000
  ---------------------------------------------------
  free energy    TOTEN  =      -274.09479841 eV

  energy without entropy =     -274.09479841  energy(sigma->0) =     -274.09479841


--------------------------------------------------------------------------------------------------------




--------------------------------------- Iteration      1(  14)  ---------------------------------------


    POTLOK:  cpu time    0.1307: real time    0.1348
    SETDIJ:  cpu time    0.1576: real time    0.1577
     EDDAV:  cpu time    6.1543: real time    6.1596
       DOS:  cpu time    0.0003: real time    0.0003
    CHARGE:  cpu time    0.2239: real time    0.2239
    MIXING:  cpu time    0.0051: real time    0.0051
    --------------------------------------------
      LOOP:  cpu time    6.6719: real time    6.6814

 eigenvalue-minimisations  :   600
 total energy-change (2. order) :-0.1047431E-03  (-0.7132621E-04)
 number of electron     383.9999988 magnetization 
 augmentation part      -49.4181807 magnetization 

 Broyden mixing:
  rms(total) = 0.32344E-02    rms(broyden)= 0.32343E-02
  rms(prec ) = 0.40222E-02
  weight for this iteration     100.00

 eigenvalues of (default mixing * dielectric matrix)
  average eigenvalue GAMMA=   2.1042
  4.9557  2.9920  2.9920  1.8243  1.8243  1.3220  0.9612  0.9612  1.1052

 Free energy of the ion-electron system (eV)
  ---------------------------------------------------
  alpha Z        PSCENC =       310.04809462
  Ewald energy   TEWEN  =    -15420.61730163
  -Hartree energ DENC   =     -4566.26336378
  -exchange      EXHF   =         0.00000000
  -V(xc)+E(xc)   XCENC  =       446.91604224
  PAW double counting   =     11242.48568872   -10651.74368432
  entropy T*S    EENTRO =        -0.00000000
  eigenvalues    EBANDS =     -1859.17953441
  atomic energy  EATOM  =     20224.25915541
  Solvation  Ediel_sol  =         0.00000000
  ---------------------------------------------------
  free energy    TOTEN  =      -274.09490315 eV

  energy without entropy =     -274.09490315  energy(sigma->0) =     -274.09490315


--------------------------------------------------------------------------------------------------------




--------------------------------------- Iteration      1(  15)  ---------------------------------------


    POTLOK:  cpu time    0.1307: real time    0.1350
    SETDIJ:  cpu time    0.1577: real time    0.1578
     EDDAV:  cpu time    5.8264: real time    5.8332
       DOS:  cpu time    0.0002: real time    0.0002
    CHARGE:  cpu time    0.2241: real time    0.2242
    MIXING:  cpu time    0.0051: real time    0.0051
    --------------------------------------------
      LOOP:  cpu time    6.3443: real time    6.3556

 eigenvalue-minimisations  :   560
 total energy-change (2. order) :-0.3425899E-04  (-0.3110614E-04)
 number of electron     383.9999988 magnetization 
 augmentation part      -49.4173379 magnetization 

 Broyden mixing:
  rms(total) = 0.20264E-02    rms(broyden)= 0.20264E-02
  rms(prec ) = 0.24002E-02
  weight for this iteration     100.00

 eigenvalues of (default mixing * dielectric matrix)
  average eigenvalue GAMMA=   2.1353
  5.0945  3.9960  2.3948  2.0040  2.0040  1.7385  1.2137  0.9589  0.9589  0.9898

 Free energy of the ion-electron system (eV)
  ---------------------------------------------------
  alpha Z        PSCENC =       310.04809462
  Ewald energy   TEWEN  =    -15420.61730163
  -Hartree energ DENC   =     -4566.76689647
  -exchange      EXHF   =         0.00000000
  -V(xc)+E(xc)   XCENC  =       446.95645889
  PAW double counting   =     11243.10793277   -10652.37379684
  entropy T*S    EENTRO =        -0.00000000
  eigenvalues    EBANDS =     -1858.70858415
  atomic energy  EATOM  =     20224.25915541
  Solvation  Ediel_sol  =         0.00000000
  ---------------------------------------------------
  free energy    TOTEN  =      -274.09493741 eV

  energy without entropy =     -274.09493741  energy(sigma->0) =     -274.09493741


--------------------------------------------------------------------------------------------------------




--------------------------------------- Iteration      1(  16)  ---------------------------------------


    POTLOK:  cpu time    0.1306: real time    0.1349
    SETDIJ:  cpu time    0.1571: real time    0.1573
     EDDAV:  cpu time    5.8168: real time    5.8230
       DOS:  cpu time    0.0003: real time    0.0002
    CHARGE:  cpu time    0.2233: real time    0.2235
    MIXING:  cpu time    0.0056: real time    0.0056
    --------------------------------------------
      LOOP:  cpu time    6.3337: real time    6.3446

 eigenvalue-minimisations  :   560
 total energy-change (2. order) :-0.2753382E-04  (-0.5800201E-05)
 number of electron     383.9999988 magnetization 
 augmentation part      -49.4168821 magnetization 

 Broyden mixing:
  rms(total) = 0.11181E-02    rms(broyden)= 0.11181E-02
  rms(prec ) = 0.13475E-02
  weight for this iteration     100.00

 eigenvalues of (default mixing * dielectric matrix)
  average eigenvalue GAMMA=   2.1429
  5.2621  4.2870  2.5040  2.5040  1.6932  1.6932  1.6809  0.9913  0.9913  1.0162
  0.9487

 Free energy of the ion-electron system (eV)
  ---------------------------------------------------
  alpha Z        PSCENC =       310.04809462
  Ewald energy   TEWEN  =    -15420.61730163
  -Hartree energ DENC   =     -4566.77412669
  -exchange      EXHF   =         0.00000000
  -V(xc)+E(xc)   XCENC  =       446.95703086
  PAW double counting   =     11242.56034907   -10651.82449799
  entropy T*S    EENTRO =        -0.00000000
  eigenvalues    EBANDS =     -1858.70366860
  atomic energy  EATOM  =     20224.25915541
  Solvation  Ediel_sol  =         0.00000000
  ---------------------------------------------------
  free energy    TOTEN  =      -274.09496494 eV

  energy without entropy =     -274.09496494  energy(sigma->0) =     -274.09496494


--------------------------------------------------------------------------------------------------------




--------------------------------------- Iteration      1(  17)  ---------------------------------------


    POTLOK:  cpu time    0.1343: real time    0.1347
    SETDIJ:  cpu time    0.1582: real time    0.1583
     EDDAV:  cpu time    4.8317: real time    4.8351
       DOS:  cpu time    0.0002: real time    0.0002
    --------------------------------------------
      LOOP:  cpu time    5.1244: real time    5.1283

 eigenvalue-minimisations  :   440
 total energy-change (2. order) :-0.1992605E-05  (-0.2501210E-05)
 number of electron     383.9999988 magnetization 
 augmentation part      -49.4168821 magnetization 

 Free energy of the ion-electron system (eV)
  ---------------------------------------------------
  alpha Z        PSCENC =       310.04809462
  Ewald energy   TEWEN  =    -15420.61730163
  -Hartree energ DENC   =     -4566.75039157
  -exchange      EXHF   =         0.00000000
  -V(xc)+E(xc)   XCENC  =       446.95657501
  PAW double counting   =     11242.17693231   -10651.43864641
  entropy T*S    EENTRO =        -0.00000000
  eigenvalues    EBANDS =     -1858.72938467
  atomic energy  EATOM  =     20224.25915541
  Solvation  Ediel_sol  =         0.00000000
  ---------------------------------------------------
  free energy    TOTEN  =      -274.09496694 eV

  energy without entropy =     -274.09496694  energy(sigma->0) =     -274.09496694


--------------------------------------------------------------------------------------------------------




 average (electrostatic) potential at core
  the test charge radii are     0.9406  1.4837  0.9748
  (the norm of the test charge is              1.0000)
       1 -92.6779       2 -92.6779       3 -94.2189       4 -94.2189       5 -94.0879
       6 -94.7265       7 -94.1124       8 -94.0458       9 -93.5668      10 -93.5668
      11 -93.6610      12 -93.6611      13 -94.1648      14 -94.0189      15 -94.0133
      16 -94.1596      17 -93.9901      18 -93.9901      19 -93.9818      20 -93.9818
      21 -94.7265      22 -94.0879      23 -94.0458      24 -94.1124      25 -93.9984
      26 -93.9984      27 -94.0149      28 -94.0150      29 -94.0189      30 -94.1647
      31 -94.1596      32 -94.0133      33 -93.6997      34 -93.6997      35 -94.0638
      36 -94.1234      37 -92.5397      38 -92.5397      39 -94.0674      40 -94.6557
      41 -93.9759      42 -93.9760      43 -94.1233      44 -94.0639      45 -94.0807
      46 -94.0807      47 -94.6558      48 -94.0674      49 -41.9871      50 -41.5408
      51 -41.8925      52 -41.9172      53 -41.9871      54 -41.8098      55 -41.8925
      56 -42.2201      57 -27.8317      58 -28.1222      59 -28.7426      60 -28.7834
      61 -27.8317      62 -28.1221      63 -28.9038      64 -28.3861      65 -28.6642
      66 -28.6667      67 -28.9038      68 -28.3861      69 -28.6643      70 -28.6667
      71 -28.7426      72 -28.7834      73 -28.5177      74 -28.7499      75 -27.9695
      76 -28.7500      77 -27.9695      78 -28.8410      79 -28.5178      80 -28.8410
 
 
 
 E-fermi :   0.4372     XC(G=0):  -7.8750     alpha+bet : -7.9187


 k-point     1 :       0.0000    0.0000    0.0000
  band No.  band energies     occupation 
      1     -14.6377      2.00000
      2     -14.3765      2.00000
      3     -14.1634      2.00000
      4     -14.1380      2.00000
      5     -14.0799      2.00000
      6     -14.0546      2.00000
      7     -14.0380      2.00000
      8     -13.9162      2.00000
      9     -13.8669      2.00000
     10     -13.8304      2.00000
     11     -13.8031      2.00000
     12     -13.7697      2.00000
     13     -13.7420      2.00000
     14     -13.7281      2.00000
     15     -13.7180      2.00000
     16     -13.6764      2.00000
     17     -13.6737      2.00000
     18     -13.6566      2.00000
     19     -13.6458      2.00000
     20     -13.5981      2.00000
     21     -13.5938      2.00000
     22     -13.5784      2.00000
     23     -13.5745      2.00000
     24     -13.5508      2.00000
     25     -13.5412      2.00000
     26     -13.4986      2.00000
     27     -13.4884      2.00000
     28     -13.4574      2.00000
     29     -13.4505      2.00000
     30     -13.4437      2.00000
     31     -13.4112      2.00000
     32     -13.4066      2.00000
     33     -13.4008      2.00000
     34     -13.3793      2.00000
     35     -13.3569      2.00000
     36     -13.3419      2.00000
     37     -13.3191      2.00000
     38     -13.2992      2.00000
     39     -13.2846      2.00000
     40     -13.2734      2.00000
     41     -13.1685      2.00000
     42     -13.1152      2.00000
     43     -12.9575      2.00000
     44     -12.9270      2.00000
     45     -12.2843      2.00000
     46     -12.2606      2.00000
     47     -12.1454      2.00000
     48     -12.1404      2.00000
     49      -5.5894      2.00000
     50      -5.3045      2.00000
     51      -5.2545      2.00000
     52      -5.1438      2.00000
     53      -5.1202      2.00000
     54      -5.0889      2.00000
     55      -4.9903      2.00000
     56      -4.6662      2.00000
     57      -3.8583      2.00000
     58      -3.6739      2.00000
     59      -3.6715      2.00000
     60      -3.4761      2.00000
     61      -3.4174      2.00000
     62      -3.3875      2.00000
     63      -3.3859      2.00000
     64      -3.3611      2.00000
     65      -3.2666      2.00000
     66      -3.2461      2.00000
     67      -3.2251      2.00000
     68      -3.2225      2.00000
     69      -3.1745      2.00000
     70      -3.0645      2.00000
     71      -3.0372      2.00000
     72      -3.0051      2.00000
     73      -3.0016      2.00000
     74      -2.9675      2.00000
     75      -2.9506      2.00000
     76      -2.8918      2.00000
     77      -2.8190      2.00000
     78      -2.7554      2.00000
     79      -2.7363      2.00000
     80      -2.7298      2.00000
     81      -2.6540      2.00000
     82      -2.6175      2.00000
     83      -2.6121      2.00000
     84      -2.5908      2.00000
     85      -2.5639      2.00000
     86      -2.5506      2.00000
     87      -2.5004      2.00000
     88      -2.4508      2.00000
     89      -2.4097      2.00000
     90      -2.3878      2.00000
     91      -2.3625      2.00000
     92      -2.3467      2.00000
     93      -2.3192      2.00000
     94      -2.3129      2.00000
     95      -2.3028      2.00000
     96      -2.3026      2.00000
     97      -2.2519      2.00000
     98      -2.2165      2.00000
     99      -2.2156      2.00000
    100      -2.1899      2.00000
    101      -2.1614      2.00000
    102      -2.1402      2.00000
    103      -2.1197      2.00000
    104      -2.0615      2.00000
    105      -2.0140      2.00000
    106      -2.0019      2.00000
    107      -1.9674      2.00000
    108      -1.9490      2.00000
    109      -1.9296      2.00000
    110      -1.9099      2.00000
    111      -1.9017      2.00000
    112      -1.8852      2.00000
    113      -1.8550      2.00000
    114      -1.8245      2.00000
    115      -1.8188      2.00000
    116      -1.7904      2.00000
    117      -1.7747      2.00000
    118      -1.7178      2.00000
    119      -1.7010      2.00000
    120      -1.6828      2.00000
    121      -1.6727      2.00000
    122      -1.6706      2.00000
    123      -1.6455      2.00000
    124      -1.6400      2.00000
    125      -1.6095      2.00000
    126      -1.6061      2.00000
    127      -1.5785      2.00000
    128      -1.5578      2.00000
    129      -1.5521      2.00000
    130      -1.5254      2.00000
    131      -1.5167      2.00000
    132      -1.5110      2.00000
    133      -1.4849      2.00000
    134      -1.4631      2.00000
    135      -1.4452      2.00000
    136      -1.4395      2.00000
    137      -1.4309      2.00000
    138      -1.3903      2.00000
    139      -1.3890      2.00000
    140      -1.3795      2.00000
    141      -1.3489      2.00000
    142      -1.3480      2.00000
    143      -1.3302      2.00000
    144      -1.3292      2.00000
    145      -1.3067      2.00000
    146      -1.2964      2.00000
    147      -1.2814      2.00000
    148      -1.2662      2.00000
    149      -1.2515      2.00000
    150      -1.2411      2.00000
    151      -1.2258      2.00000
    152      -1.2082      2.00000
    153      -1.1947      2.00000
    154      -1.1813      2.00000
    155      -1.1790      2.00000
    156      -1.1558      2.00000
    157      -1.1483      2.00000
    158      -1.1170      2.00000
    159      -1.0914      2.00000
    160      -1.0819      2.00000
    161      -1.0802      2.00000
    162      -1.0740      2.00000
    163      -1.0586      2.00000
    164      -1.0522      2.00000
    165      -1.0111      2.00000
    166      -0.9917      2.00000
    167      -0.9799      2.00000
    168      -0.9721      2.00000
    169      -0.9453      2.00000
    170      -0.9287      2.00000
    171      -0.9207      2.00000
    172      -0.9051      2.00000
    173      -0.8797      2.00000
    174      -0.8573      2.00000
    175      -0.8312      2.00000
    176      -0.8000      2.00000
    177      -0.7959      2.00000
    178      -0.7577      2.00000
    179      -0.7538      2.00000
    180      -0.6703      2.00000
    181      -0.6695      2.00000
    182      -0.5984      2.00000
    183      -0.5925      2.00000
    184      -0.5223      2.00000
    185      -0.3619      2.00000
    186      -0.3523      2.00000
    187      -0.3376      2.00000
    188      -0.2732      2.00000
    189      -0.2407      2.00000
    190      -0.2253      2.00000
    191      -0.1614      2.00000
    192      -0.0622      2.00000
    193       2.4702      0.00000
    194       2.7875      0.00000
    195       2.8055      0.00000
    196       2.9268      0.00000
    197       3.1264      0.00000
    198       3.1385      0.00000
    199       3.2131      0.00000
    200       3.4195      0.00000
    201       5.6641      0.00000
    202       5.8047      0.00000
    203       5.9125      0.00000
    204       5.9600      0.00000
    205       6.0610      0.00000
    206       6.0728      0.00000
    207       6.1271      0.00000
    208       6.1809      0.00000
    209       6.2607      0.00000
    210       6.3714      0.00000
    211       6.4824      0.00000
    212       6.5290      0.00000
    213       6.6257      0.00000
    214       6.6412      0.00000
    215       6.6996      0.00000
    216       6.7361      0.00000
    217       6.8233      0.00000
    218       6.8365      0.00000
    219       6.9092      0.00000
    220       6.9655      0.00000
    221       6.9902      0.00000
    222       7.0443      0.00000
    223       7.1751      0.00000
    224       7.2348      0.00000
    225       7.2705      0.00000
    226       7.3620      0.00000
    227       7.4451      0.00000
    228       7.4653      0.00000
    229       7.5352      0.00000
    230       7.5620      0.00000
    231       7.6031      0.00000
    232       7.7002      0.00000
    233       7.7847      0.00000
    234       7.8056      0.00000
    235       7.8210      0.00000
    236       7.8773      0.00000
    237       7.8832      0.00000
    238       7.9055      0.00000
    239       7.9860      0.00000
    240       8.0274      0.00000


--------------------------------------------------------------------------------------------------------


 soft charge-density along one line, spin component           1
         0         1         2         3         4         5         6         7         8         9
 total charge-density along one line
 
 pseudopotential strength for first ion, spin component:           1
 47.402  -0.016  -0.003   0.019   0.003  -0.000   0.000   0.000
 -0.016   0.019  -0.000   0.000   0.000  -0.000   0.000   0.000
 -0.003  -0.000   9.108   0.000  -0.000   0.002  -0.000   0.000
  0.019   0.000   0.000   9.105   0.000  -0.000   0.002  -0.000
  0.003   0.000  -0.000   0.000   9.109   0.000  -0.000   0.002
 -0.000  -0.000   0.002  -0.000   0.000   0.035   0.000   0.000
  0.000   0.000  -0.000   0.002  -0.000   0.000   0.035   0.000
  0.000   0.000   0.000  -0.000   0.002   0.000   0.000   0.035
 total augmentation occupancy for first ion, spin component:           1
  1.911   0.426   0.009  -0.061  -0.010   0.011  -0.067  -0.011
  0.426   0.249  -0.054   0.338   0.055   0.013  -0.100  -0.023
  0.009  -0.054   1.758  -0.002   0.002  -0.398  -0.007   0.002
 -0.061   0.338  -0.002   1.796  -0.001  -0.007  -0.331  -0.010
 -0.010   0.055   0.002  -0.001   1.750   0.002  -0.010  -0.421
  0.011   0.013  -0.398  -0.007   0.002   0.100   0.003  -0.000
 -0.067  -0.100  -0.007  -0.331  -0.010   0.003   0.078   0.006
 -0.011  -0.023   0.002  -0.010  -0.421  -0.000   0.006   0.114


------------------------ aborting loop because EDIFF is reached ----------------------------------------


 


 total charge     
 
# of ion       s       p       d       tot
------------------------------------------
    1        1.589   3.591   0.000   5.179
    2        1.589   3.591   0.000   5.179
    3        1.599   3.534   0.000   5.133
    4        1.599   3.534   0.000   5.133
    5        1.598   3.543   0.000   5.141
    6        1.602   3.527   0.000   5.129
    7        1.598   3.538   0.000   5.136
    8        1.599   3.536   0.000   5.135
    9        1.597   3.539   0.000   5.136
   10        1.597   3.539   0.000   5.136
   11        1.594   3.554   0.000   5.148
   12        1.594   3.554   0.000   5.148
   13        1.597   3.549   0.000   5.145
   14        1.598   3.544   0.000   5.142
   15        1.599   3.542   0.000   5.142
   16        1.596   3.549   0.000   5.146
   17        1.597   3.544   0.000   5.140
   18        1.597   3.544   0.000   5.140
   19        1.595   3.548   0.000   5.143
   20        1.595   3.548   0.000   5.143
   21        1.602   3.527   0.000   5.129
   22        1.598   3.543   0.000   5.141
   23        1.599   3.536   0.000   5.135
   24        1.598   3.538   0.000   5.136
   25        1.596   3.560   0.000   5.156
   26        1.596   3.560   0.000   5.156
   27        1.596   3.546   0.000   5.142
   28        1.596   3.546   0.000   5.142
   29        1.598   3.544   0.000   5.142
   30        1.597   3.549   0.000   5.145
   31        1.596   3.549   0.000   5.146
   32        1.599   3.542   0.000   5.142
   33        1.599   3.539   0.000   5.139
   34        1.599   3.539   0.000   5.139
   35        1.596   3.552   0.000   5.147
   36        1.595   3.562   0.000   5.156
   37        1.590   3.591   0.000   5.181
   38        1.590   3.591   0.000   5.181
   39        1.599   3.537   0.000   5.136
   40        1.604   3.522   0.000   5.126
   41        1.600   3.540   0.000   5.140
   42        1.600   3.540   0.000   5.140
   43        1.595   3.562   0.000   5.156
   44        1.596   3.552   0.000   5.147
   45        1.596   3.557   0.000   5.153
   46        1.596   3.557   0.000   5.153
   47        1.604   3.522   0.000   5.126
   48        1.599   3.537   0.000   5.136
   49        0.975   1.141   0.371   2.487
   50        0.965   1.104   0.358   2.427
   51        0.970   1.146   0.381   2.497
   52        0.961   1.114   0.368   2.443
   53        0.975   1.141   0.371   2.487
   54        0.969   1.132   0.373   2.474
   55        0.970   1.146   0.381   2.497
   56        0.973   1.138   0.369   2.480
   57        0.071   0.128   0.000   0.199
   58        0.071   0.132   0.000   0.203
   59        0.056   0.101   0.000   0.158
   60        0.057   0.103   0.000   0.160
   61        0.071   0.128   0.000   0.199
   62        0.071   0.132   0.000   0.203
   63        0.056   0.100   0.000   0.156
   64        0.064   0.114   0.000   0.178
   65        0.061   0.110   0.000   0.171
   66        0.061   0.111   0.000   0.172
   67        0.056   0.100   0.000   0.156
   68        0.064   0.114   0.000   0.178
   69        0.061   0.110   0.000   0.171
   70        0.061   0.111   0.000   0.172
   71        0.056   0.101   0.000   0.158
   72        0.057   0.103   0.000   0.160
   73        0.062   0.109   0.000   0.171
   74        0.060   0.107   0.000   0.167
   75        0.068   0.126   0.000   0.195
   76        0.060   0.107   0.000   0.167
   77        0.068   0.126   0.000   0.195
   78        0.060   0.107   0.000   0.168
   79        0.062   0.109   0.000   0.171
   80        0.060   0.107   0.000   0.168
--------------------------------------------------
tot         85.907 182.050   2.973 270.930
 
    CHARGE:  cpu time    0.2217: real time    0.2219
    FORLOC:  cpu time    0.0566: real time    0.0566
    FORNL :  cpu time    1.4172: real time    1.4179
    STRESS:  cpu time    7.0371: real time    7.0429
    FORCOR:  cpu time    0.1679: real time    0.1680
    FORHAR:  cpu time    0.0817: real time    0.0817
    MIXING:  cpu time    0.0053: real time    0.0053
    OFIELD:  cpu time    0.0000: real time    0.0000

  FORCE on cell =-STRESS in cart. coord.  units (eV):
  Direction    XX          YY          ZZ          XY          YZ          ZX
  --------------------------------------------------------------------------------------
  Alpha Z   310.04809   310.04809   310.04809
  Ewald   -5112.45376 -5450.62856 -4857.62479    -0.00000    -0.00000    28.24484
  Hartree  1541.03509  1334.99199  1690.65704    -0.00000     0.00000     9.57306
  E(xc)   -1403.46428 -1403.44185 -1404.84830     0.00000     0.00000     0.11248
  Local   -4328.85476 -3798.99387 -4715.80015    -0.00000     0.00000   -38.75973
  n-local  4203.11598  4200.47673  4208.90769    -0.00000    -0.00000     0.63409
  augment  -980.06445  -981.10890  -979.52455    -0.00000    -0.00000    -0.09782
  Kinetic  5770.61676  5791.05890  5748.26262    -0.00000     0.00000     0.62128
  Fock        0.00000     0.00000     0.00000     0.00000     0.00000     0.00000
  -------------------------------------------------------------------------------------
  Total      -0.02133     2.40253     0.07765     0.00000     0.00000     0.32820
  in kB      -0.01836     2.06827     0.06685     0.00000     0.00000     0.28254
  external pressure =        0.71 kB  Pullay stress =        0.00 kB


 VOLUME and BASIS-vectors are now :
 -----------------------------------------------------------------------------
  energy-cutoff  :      520.00
  volume of cell :     1861.11
      direct lattice vectors                 reciprocal lattice vectors
    13.459017910  0.000000000 -0.273085008     0.074898101  0.000000000  0.029495859
     0.000000000 11.456071877  0.000000000     0.000000000  0.087289955  0.000000000
    -4.791777054  0.000000000 12.167640179     0.001680979  0.000000000  0.082847197

  length of vectors
    13.461788088 11.456071877 13.077178399     0.080496777  0.087289955  0.082864248


 FORCES acting on ions
    electron-ion (+dipol)            ewald-force                    non-local-force                 convergence-correction
 -----------------------------------------------------------------------------------------------
   0.140E+02 0.731E+01 0.540E+02   -.141E+02 -.710E+01 -.554E+02   0.157E+00 -.213E+00 0.147E+01   0.261E-03 -.131E-02 0.141E-02
   -.140E+02 0.731E+01 -.540E+02   0.141E+02 -.710E+01 0.554E+02   -.157E+00 -.213E+00 -.147E+01   -.261E-03 -.131E-02 -.141E-02
   0.211E+02 -.718E+02 0.146E+01   -.222E+02 0.739E+02 -.306E+01   0.109E+01 -.215E+01 0.161E+01   -.105E-02 0.194E-02 -.168E-02
   -.211E+02 -.718E+02 -.146E+01   0.222E+02 0.739E+02 0.306E+01   -.109E+01 -.215E+01 -.161E+01   0.105E-02 0.194E-02 0.168E-02
   -.402E+02 -.417E+02 0.365E+01   0.410E+02 0.436E+02 -.283E+01   -.825E+00 -.185E+01 -.816E+00   0.647E-03 0.970E-03 0.153E-02
   -.320E+02 -.389E+02 0.273E+02   0.330E+02 0.398E+02 -.287E+02   -.100E+01 -.929E+00 0.146E+01   0.628E-03 0.705E-03 -.544E-03
   0.222E+02 0.758E+02 -.431E+01   -.233E+02 -.779E+02 0.348E+01   0.116E+01 0.212E+01 0.825E+00   0.409E-03 -.153E-02 -.131E-02
   -.248E+02 0.512E+02 0.157E+02   0.257E+02 -.534E+02 -.144E+02   -.875E+00 0.230E+01 -.123E+01   0.125E-02 -.101E-02 0.860E-03
   -.178E+02 -.445E+02 -.266E+01   0.185E+02 0.462E+02 0.353E+01   -.747E+00 -.176E+01 -.872E+00   -.191E-03 -.555E-04 0.193E-02
   0.178E+02 -.445E+02 0.266E+01   -.185E+02 0.462E+02 -.353E+01   0.747E+00 -.176E+01 0.872E+00   0.191E-03 -.555E-04 -.193E-02
   0.215E+02 0.269E+02 -.667E+01   -.220E+02 -.280E+02 0.646E+01   0.510E+00 0.110E+01 0.206E+00   0.193E-03 0.111E-02 -.178E-02
   -.215E+02 0.269E+02 0.667E+01   0.220E+02 -.280E+02 -.646E+01   -.510E+00 0.110E+01 -.206E+00   -.193E-03 0.111E-02 0.178E-02
   -.263E+02 -.402E+02 0.414E+01   0.275E+02 0.418E+02 -.368E+01   -.118E+01 -.158E+01 -.464E+00   0.684E-03 0.295E-03 0.153E-02
   0.194E+02 -.430E+02 -.145E+02   -.204E+02 0.450E+02 0.138E+02   0.100E+01 -.199E+01 0.777E+00   0.840E-03 0.288E-03 -.104E-02
   0.238E+02 0.584E+02 0.130E+01   -.249E+02 -.607E+02 -.189E+01   0.108E+01 0.229E+01 0.597E+00   -.192E-03 -.466E-03 -.100E-02
   -.157E+02 0.470E+02 -.222E+01   0.165E+02 -.486E+02 0.305E+01   -.795E+00 0.153E+01 -.820E+00   0.936E-04 -.166E-03 0.197E-02
   -.247E+02 -.488E+02 0.721E+01   0.257E+02 0.504E+02 -.634E+01   -.987E+00 -.156E+01 -.873E+00   0.248E-03 0.104E-02 0.686E-03
   0.247E+02 -.488E+02 -.721E+01   -.257E+02 0.504E+02 0.634E+01   0.987E+00 -.156E+01 0.873E+00   -.248E-03 0.104E-02 -.686E-03
   0.186E+02 0.362E+02 -.695E+01   -.194E+02 -.377E+02 0.632E+01   0.803E+00 0.145E+01 0.628E+00   0.328E-03 -.470E-03 -.612E-03
   -.186E+02 0.362E+02 0.695E+01   0.194E+02 -.377E+02 -.632E+01   -.803E+00 0.145E+01 -.628E+00   -.328E-03 -.470E-03 0.612E-03
   0.320E+02 -.389E+02 -.273E+02   -.330E+02 0.398E+02 0.287E+02   0.100E+01 -.929E+00 -.146E+01   -.628E-03 0.705E-03 0.544E-03
   0.402E+02 -.417E+02 -.364E+01   -.410E+02 0.436E+02 0.283E+01   0.825E+00 -.185E+01 0.816E+00   -.647E-03 0.970E-03 -.153E-02
   0.248E+02 0.512E+02 -.157E+02   -.257E+02 -.534E+02 0.144E+02   0.875E+00 0.230E+01 0.123E+01   -.125E-02 -.101E-02 -.860E-03
   -.222E+02 0.758E+02 0.431E+01   0.233E+02 -.779E+02 -.348E+01   -.116E+01 0.212E+01 -.825E+00   -.409E-03 -.153E-02 0.131E-02
   -.252E+02 -.371E+02 0.544E+01   0.255E+02 0.386E+02 -.492E+01   -.316E+00 -.146E+01 -.519E+00   -.747E-04 -.432E-03 0.226E-02
   0.252E+02 -.371E+02 -.544E+01   -.255E+02 0.386E+02 0.492E+01   0.316E+00 -.146E+01 0.519E+00   0.747E-04 -.432E-03 -.226E-02
   0.246E+02 0.292E+02 -.744E+01   -.255E+02 -.304E+02 0.649E+01   0.866E+00 0.119E+01 0.941E+00   0.610E-04 -.305E-03 -.186E-02
   -.246E+02 0.292E+02 0.743E+01   0.255E+02 -.304E+02 -.649E+01   -.866E+00 0.119E+01 -.941E+00   -.610E-04 -.305E-03 0.186E-02
   -.194E+02 -.430E+02 0.145E+02   0.204E+02 0.450E+02 -.138E+02   -.100E+01 -.199E+01 -.777E+00   -.840E-03 0.288E-03 0.104E-02
   0.263E+02 -.402E+02 -.414E+01   -.275E+02 0.418E+02 0.368E+01   0.118E+01 -.158E+01 0.464E+00   -.684E-03 0.295E-03 -.153E-02
   0.157E+02 0.470E+02 0.222E+01   -.165E+02 -.486E+02 -.305E+01   0.795E+00 0.153E+01 0.820E+00   -.936E-04 -.166E-03 -.197E-02
   -.238E+02 0.584E+02 -.130E+01   0.249E+02 -.607E+02 0.189E+01   -.108E+01 0.229E+01 -.597E+00   0.192E-03 -.466E-03 0.100E-02
   -.529E+02 -.118E+02 0.106E+01   0.555E+02 0.119E+02 -.151E+01   -.262E+01 -.362E-01 0.451E+00   -.561E-03 0.204E-03 -.234E-02
   0.529E+02 -.118E+02 -.106E+01   -.555E+02 0.119E+02 0.151E+01   0.262E+01 -.362E-01 -.451E+00   0.561E-03 0.204E-03 0.234E-02
   -.440E+02 0.752E+01 -.181E+02   0.455E+02 -.775E+01 0.174E+02   -.153E+01 0.230E+00 0.721E+00   0.643E-03 0.377E-03 -.900E-03
   0.382E+02 0.699E+01 0.131E+02   -.396E+02 -.670E+01 -.128E+02   0.145E+01 -.295E+00 -.323E+00   0.803E-03 -.845E-03 0.166E-02
   0.883E+01 -.298E+02 -.564E+02   -.885E+01 0.298E+02 0.580E+02   0.142E-01 -.193E-01 -.158E+01   -.636E-03 0.799E-03 -.243E-02
   -.883E+01 -.298E+02 0.564E+02   0.885E+01 0.298E+02 -.580E+02   -.142E-01 -.193E-01 0.158E+01   0.636E-03 0.799E-03 0.243E-02
   -.556E+02 0.522E+01 -.173E+02   0.582E+02 -.488E+01 0.165E+02   -.265E+01 -.339E+00 0.766E+00   0.105E-02 -.515E-03 -.106E-02
   0.155E+02 0.626E+02 -.212E+02   -.163E+02 -.642E+02 0.226E+02   0.769E+00 0.161E+01 -.138E+01   0.613E-04 -.383E-03 0.736E-03
   -.541E+02 -.464E+01 -.143E+02   0.568E+02 0.450E+01 0.140E+02   -.274E+01 0.138E+00 0.299E+00   -.744E-03 -.166E-03 -.156E-02
   0.541E+02 -.464E+01 0.143E+02   -.568E+02 0.450E+01 -.140E+02   0.274E+01 0.138E+00 -.299E+00   0.744E-03 -.166E-03 0.156E-02
   -.382E+02 0.699E+01 -.131E+02   0.396E+02 -.670E+01 0.128E+02   -.145E+01 -.295E+00 0.323E+00   -.803E-03 -.845E-03 -.166E-02
   0.440E+02 0.752E+01 0.181E+02   -.455E+02 -.775E+01 -.174E+02   0.153E+01 0.230E+00 -.721E+00   -.643E-03 0.377E-03 0.900E-03
   -.536E+02 -.813E+01 -.241E+02   0.553E+02 0.810E+01 0.237E+02   -.179E+01 0.368E-01 0.407E+00   0.465E-03 0.963E-04 -.162E-02
   0.536E+02 -.813E+01 0.241E+02   -.553E+02 0.810E+01 -.237E+02   0.179E+01 0.368E-01 -.407E+00   -.465E-03 0.963E-04 0.162E-02
   -.155E+02 0.626E+02 0.212E+02   0.163E+02 -.642E+02 -.226E+02   -.769E+00 0.161E+01 0.138E+01   -.613E-04 -.383E-03 -.736E-03
   0.556E+02 0.522E+01 0.173E+02   -.582E+02 -.488E+01 -.165E+02   0.265E+01 -.339E+00 -.766E+00   -.105E-02 -.515E-03 0.106E-02
   -.751E+01 0.939E+01 0.124E+01   0.914E+01 -.103E+02 -.116E+01   -.163E+01 0.956E+00 -.825E-01   0.125E-03 -.158E-03 0.186E-04
   -.483E-06 -.215E+01 -.950E-06   -.353E-05 0.329E+01 -.698E-05   0.847E-21 -.115E+01 0.000E+00   -.228E-09 0.349E-03 -.323E-08
   -.285E+01 0.304E+01 -.353E+01   0.253E+01 -.321E+01 0.261E+01   0.309E+00 0.174E+00 0.914E+00   0.292E-03 -.686E-04 0.184E-03
   0.636E-06 -.251E+01 0.987E-06   0.466E-05 0.291E+01 0.725E-05   0.000E+00 -.399E+00 0.000E+00   0.514E-09 0.148E-03 0.317E-08
   0.751E+01 0.939E+01 -.124E+01   -.914E+01 -.103E+02 0.116E+01   0.163E+01 0.956E+00 0.825E-01   -.125E-03 -.158E-03 -.186E-04
   -.487E-06 0.270E+01 -.900E-06   -.357E-05 -.252E+01 -.661E-05   0.000E+00 -.174E+00 0.000E+00   -.252E-09 -.319E-03 -.319E-08
   0.285E+01 0.304E+01 0.353E+01   -.253E+01 -.321E+01 -.261E+01   -.309E+00 0.174E+00 -.914E+00   -.292E-03 -.686E-04 -.184E-03
   0.187E-07 -.125E+02 0.147E-05   0.101E-06 0.138E+02 0.109E-04   0.000E+00 -.134E+01 0.000E+00   -.680E-10 0.375E-03 0.375E-08
   0.607E+00 -.870E+01 0.263E+01   -.218E+00 0.779E+01 -.331E+01   -.390E+00 0.904E+00 0.678E+00   -.397E-04 -.439E-06 0.656E-04
   0.328E+01 0.480E+01 -.420E+00   -.280E+01 -.361E+01 0.620E+00   -.485E+00 -.119E+01 -.197E+00   -.104E-03 0.585E-04 0.223E-04
   -.303E+01 -.407E+01 -.463E+01   0.290E+01 0.398E+01 0.456E+01   0.134E+00 0.985E-01 0.740E-01   0.700E-04 0.145E-03 -.281E-04
   -.769E+00 0.103E+02 -.120E+01   0.720E+00 -.962E+01 0.121E+01   0.502E-01 -.682E+00 -.405E-02   0.368E-04 -.112E-03 0.529E-04
   -.607E+00 -.870E+01 -.263E+01   0.218E+00 0.779E+01 0.331E+01   0.390E+00 0.904E+00 -.678E+00   0.397E-04 -.439E-06 -.656E-04
   -.328E+01 0.480E+01 0.420E+00   0.280E+01 -.361E+01 -.620E+00   0.485E+00 -.119E+01 0.197E+00   0.104E-03 0.585E-04 -.223E-04
   0.184E+01 -.553E+01 -.340E+01   -.150E+01 0.516E+01 0.297E+01   -.346E+00 0.373E+00 0.425E+00   0.133E-03 0.151E-04 0.555E-04
   -.676E+00 -.765E-01 -.424E-01   0.144E+00 -.728E+00 -.262E+00   0.530E+00 0.801E+00 0.305E+00   0.422E-04 -.354E-04 -.102E-04
   -.125E+01 -.813E+01 0.791E+00   0.131E+01 0.746E+01 -.712E+00   -.570E-01 0.670E+00 -.767E-01   0.139E-04 0.190E-04 -.827E-04
   0.393E+00 0.815E+01 -.683E+00   -.417E+00 -.736E+01 0.664E+00   0.237E-01 -.784E+00 0.209E-01   0.701E-04 -.161E-04 0.685E-05
   -.184E+01 -.553E+01 0.340E+01   0.150E+01 0.516E+01 -.297E+01   0.346E+00 0.373E+00 -.425E+00   -.133E-03 0.151E-04 -.555E-04
   0.676E+00 -.765E-01 0.424E-01   -.144E+00 -.728E+00 0.262E+00   -.530E+00 0.801E+00 -.305E+00   -.422E-04 -.354E-04 0.102E-04
   0.125E+01 -.813E+01 -.791E+00   -.131E+01 0.746E+01 0.712E+00   0.570E-01 0.670E+00 0.767E-01   -.139E-04 0.190E-04 0.827E-04
   -.393E+00 0.815E+01 0.683E+00   0.417E+00 -.736E+01 -.664E+00   -.237E-01 -.784E+00 -.209E-01   -.701E-04 -.161E-04 -.685E-05
   0.303E+01 -.407E+01 0.463E+01   -.290E+01 0.398E+01 -.456E+01   -.134E+00 0.985E-01 -.740E-01   -.700E-04 0.145E-03 0.281E-04
   0.769E+00 0.103E+02 0.120E+01   -.720E+00 -.962E+01 -.121E+01   -.502E-01 -.682E+00 0.405E-02   -.368E-04 -.112E-03 -.529E-04
   0.464E+01 0.447E+01 0.428E+01   -.495E+01 -.338E+01 -.443E+01   0.305E+00 -.109E+01 0.145E+00   0.431E-04 -.108E-03 0.212E-04
   -.265E+01 0.576E+00 -.467E+00   0.257E+01 -.631E+00 0.360E+00   0.823E-01 0.563E-01 0.104E+00   0.420E-04 0.880E-05 -.230E-04
   -.537E+01 -.165E+01 -.359E+00   0.436E+01 0.171E+01 0.720E+00   0.101E+01 -.567E-01 -.362E+00   0.339E-04 0.955E-04 -.124E-04
   0.265E+01 0.576E+00 0.467E+00   -.257E+01 -.631E+00 -.360E+00   -.823E-01 0.563E-01 -.104E+00   -.420E-04 0.880E-05 0.230E-04
   0.537E+01 -.165E+01 0.359E+00   -.436E+01 0.171E+01 -.720E+00   -.101E+01 -.567E-01 0.362E+00   -.339E-04 0.955E-04 0.124E-04
   0.884E+00 0.187E+01 0.353E+00   -.757E+00 -.219E+01 -.123E-01   -.127E+00 0.315E+00 -.341E+00   -.469E-05 -.956E-04 -.760E-04
   -.464E+01 0.447E+01 -.428E+01   0.495E+01 -.338E+01 0.443E+01   -.305E+00 -.109E+01 -.145E+00   -.431E-04 -.108E-03 -.212E-04
   -.884E+00 0.187E+01 -.353E+00   0.757E+00 -.219E+01 0.123E-01   0.127E+00 0.315E+00 0.341E+00   0.469E-05 -.956E-04 0.760E-04
 -----------------------------------------------------------------------------------------------
   0.274E-03 0.233E+01 -.697E-03   -.170E-12 -.444E-14 -.647E-14   -.333E-15 -.233E+01 -.222E-15   0.168E-07 0.386E-03 -.407E-07
 
 
 POSITION                                       TOTAL-FORCE (eV/Angst)
 -----------------------------------------------------------------------------------
      1.01684      1.92051      1.89179         0.000112      0.001112      0.016687
      7.65040      1.92051     10.00277        -0.000112      0.001112     -0.016687
      7.76559      9.34682     10.19124         0.015229     -0.021488      0.003920
      0.90165      9.34682      1.70331        -0.015229     -0.021488     -0.003920
      4.20030      7.46062      1.63897        -0.006711     -0.007458      0.000950
     -2.65261      7.54710     10.69453        -0.014494     -0.003042      0.013024
     -2.34258      4.07119     10.45558         0.014117      0.011743     -0.002754
      4.23910      3.97379      1.59963        -0.011062      0.005153     -0.001558
     -1.47731      1.72862      7.73905        -0.011241     -0.006321      0.004589
     10.14455      1.72862      4.15550         0.011241     -0.006321     -0.004589
     10.07818      9.61953      4.16536         0.003983      0.002797     -0.005507
     -1.41094      9.61953      7.72919        -0.003983      0.002797      0.005507
      2.05074      7.46560      7.58980        -0.002285     -0.001793     -0.003170
     -0.04272      7.40601      4.47479         0.008748     -0.012043      0.000203
     -0.09009      3.92794      4.63248         0.006378      0.007596      0.002127
      1.88431      4.01427      7.75836        -0.006073      0.002385      0.008567
      7.67994      1.76043      1.49467        -0.004699     -0.002592      0.000442
      0.98730      1.76043     10.39988         0.004699     -0.002592     -0.000442
      1.04205      9.71513     10.39313         0.009745      0.005505      0.001872
      7.62519      9.71513      1.50142        -0.009745      0.005505     -0.001872
     11.31985      7.54710      1.20002         0.014494     -0.003042     -0.013024
      4.46694      7.46062     10.25559         0.006711     -0.007458     -0.000950
      4.42814      3.97379     10.29493         0.011062      0.005153      0.001558
     11.00982      4.07119      1.43897        -0.014117      0.011743      0.002754
      5.08997      1.80564      7.57656        -0.009177      0.000584     -0.001752
      3.57727      1.80564      4.31799         0.009177      0.000584      0.001752
      3.37608      9.75323      4.20205         0.006202      0.004671     -0.002045
      5.29116      9.75323      7.69251        -0.006202      0.004671      0.002045
      8.70996      7.40601      7.41976        -0.008748     -0.012043     -0.000203
      6.61650      7.46560      4.30476         0.002285     -0.001793      0.003170
      6.78293      4.01427      4.13620         0.006073      0.002385     -0.008567
      8.75733      3.92794      7.26208        -0.006378      0.007596     -0.002127
     -0.33271     11.33693      4.64401        -0.014713     -0.004503      0.005820
      8.99996     11.33693      7.25054         0.014713     -0.004503     -0.005820
      2.98819      5.62724      4.50706        -0.013654     -0.001384      0.005670
     -1.12757      5.88545      7.61670         0.016325     -0.001387     -0.006393
     -2.53503     11.33218     10.68646        -0.004022     -0.001948     -0.006522
     11.20227     11.33218      1.20809         0.004022     -0.001948      0.006522
      0.60587      5.96998     10.65611        -0.018181      0.000756      0.013295
      1.11872      5.82378      1.32789         0.011611      0.011053     -0.012127
      6.45411     11.37344      4.58664        -0.017906     -0.000383      0.009620
      2.21313     11.37344      7.30791         0.017906     -0.000383     -0.009620
      9.79481      5.88545      4.27786        -0.016325     -0.001387      0.006393
      5.67906      5.62724      7.38750         0.013654     -0.001384     -0.005670
      4.01646      0.03570     10.53218        -0.016238      0.000707      0.006889
      4.65078      0.03570      1.36237         0.016238      0.000707     -0.006889
      7.54852      5.82378     10.56667        -0.011611      0.011053      0.012127
      8.06137      5.96998      1.23844         0.018181      0.000756     -0.013295
      3.41658      5.68516     -0.01177         0.001516      0.001419     -0.000255
     -2.39589      0.01409      6.08382        -0.000000     -0.008131      0.000000
      0.95386      5.71039      6.06982        -0.009392      0.002413     -0.004062
      6.72951      0.03929     -0.13654         0.000000     -0.002855      0.000000
      5.25066      5.68516     11.90633        -0.001516      0.001419      0.000255
      4.33362     11.39753      5.94728         0.000000      0.002980      0.000000
      7.71338      5.71039      5.82474         0.009392      0.002413      0.004062
      0.00000      7.78610      0.00000         0.000000      0.009238      0.000000
     12.37103      1.40409      2.47165        -0.001178     -0.004699     -0.000831
     -3.43060      9.87532      9.15151        -0.000576      0.001467      0.003175
      2.10943      7.61624      3.14357        -0.000202      0.001310      0.001242
     -0.20687      4.11779      9.14797         0.001014      0.006951      0.002588
     -3.70379      1.40409      9.42291         0.001178     -0.004699      0.000831
     12.09784      9.87532      2.74304         0.000576      0.001467     -0.003175
     -0.00947      7.75712      8.87362        -0.000584      0.000966     -0.004199
      1.99419      3.48434      3.27653        -0.002261     -0.003725     -0.000289
      5.71695      1.64851      3.01832         0.002142     -0.000109      0.002208
      3.11614      9.80278      8.97658        -0.000155      0.002486      0.001668
      8.67671      7.75712      3.02094         0.000584      0.000966      0.004199
      6.67305      3.48434      8.61803         0.002261     -0.003725      0.000289
      2.95029      1.64851      8.87624        -0.002142     -0.000109     -0.002208
      5.55111      9.80278      2.91797         0.000155      0.002486     -0.001668
      6.55781      7.61624      8.75099         0.000202      0.001310     -0.001242
      8.87411      4.11779      2.74659        -0.001014      0.006951     -0.002588
      2.44716      0.29683      2.63033        -0.001960      0.003046     -0.001261
      5.20918      5.69982      3.12646        -0.001154      0.001151     -0.002530
     -0.66588      0.01612      9.35134        -0.003145     -0.001801     -0.000269
      3.45806      5.69982      8.76810         0.001154      0.001151      0.002530
      9.33313      0.01612      2.54322         0.003145     -0.001801      0.000269
     12.04599      5.57815      3.16449         0.000556     -0.001213      0.000036
      6.22008      0.29683      9.26423         0.001960      0.003046      0.001261
     -3.37875      5.57815      8.73007        -0.000556     -0.001213     -0.000036
 -----------------------------------------------------------------------------------
    total drift:                                0.000274     -0.001767     -0.000697


--------------------------------------------------------------------------------------------------------



  FREE ENERGIE OF THE ION-ELECTRON SYSTEM (eV)
  ---------------------------------------------------
  free  energy   TOTEN  =      -274.09496694 eV

  energy  without entropy=     -274.09496694  energy(sigma->0) =     -274.09496694
 


--------------------------------------------------------------------------------------------------------


    POTLOK:  cpu time    0.2899: real time    0.2900


--------------------------------------------------------------------------------------------------------




--------------------------------------------------------------------------------------------------------


    WAVPRE:  cpu time    0.0694: real time    0.0713
    FEWALD:  cpu time    0.0019: real time    0.0019
    ORTHCH:  cpu time    0.9012: real time    0.9019
     LOOP+:  cpu time  117.3535: real time  118.1207


--------------------------------------- Iteration      2(   1)  ---------------------------------------


    POTLOK:  cpu time    0.1294: real time    0.1331
    SETDIJ:  cpu time    0.1578: real time    0.1579
     EDDAV:  cpu time    5.8080: real time    5.8225
       DOS:  cpu time    0.0003: real time    0.0003
    CHARGE:  cpu time    0.2233: real time    0.2234
    MIXING:  cpu time    0.0040: real time    0.0040
    --------------------------------------------
      LOOP:  cpu time    6.3227: real time    6.3413

 eigenvalue-minimisations  :   560
 total energy-change (2. order) :-0.2663576E-03  (-0.4899478E-02)
 number of electron     383.9999988 magnetization 
 augmentation part      -49.4184707 magnetization 

 Broyden mixing:
  rms(total) = 0.38025E-02    rms(broyden)= 0.38018E-02
  rms(prec ) = 0.43495E-02
  weight for this iteration     100.00

 Free energy of the ion-electron system (eV)
  ---------------------------------------------------
  alpha Z        PSCENC =       310.04809462
  Ewald energy   TEWEN  =    -15419.08751456
  -Hartree energ DENC   =     -4568.06055965
  -exchange      EXHF   =         0.00000000
  -V(xc)+E(xc)   XCENC  =       446.97594372
  PAW double counting   =     11241.94430743   -10651.20386406
  entropy T*S    EENTRO =        -0.00000000
  eigenvalues    EBANDS =     -1858.97079420
  atomic energy  EATOM  =     20224.25915541
  Solvation  Ediel_sol  =         0.00000000
  ---------------------------------------------------
  free energy    TOTEN  =      -274.09523130 eV

  energy without entropy =     -274.09523130  energy(sigma->0) =     -274.09523130


--------------------------------------------------------------------------------------------------------




--------------------------------------- Iteration      2(   2)  ---------------------------------------


    POTLOK:  cpu time    0.1307: real time    0.1350
    SETDIJ:  cpu time    0.1570: real time    0.1571
     EDDAV:  cpu time    5.8115: real time    5.8172
       DOS:  cpu time    0.0002: real time    0.0002
    CHARGE:  cpu time    0.2235: real time    0.2236
    MIXING:  cpu time    0.0045: real time    0.0045
    --------------------------------------------
      LOOP:  cpu time    6.3274: real time    6.3377

 eigenvalue-minimisations  :   560
 total energy-change (2. order) :-0.2206307E-03  (-0.2332420E-03)
 number of electron     383.9999988 magnetization 
 augmentation part      -49.4178367 magnetization 

 Broyden mixing:
  rms(total) = 0.14510E-02    rms(broyden)= 0.14491E-02
  rms(prec ) = 0.19883E-02
  weight for this iteration     100.00

 eigenvalues of (default mixing * dielectric matrix)
  average eigenvalue GAMMA=   0.8238
  0.8238

 Free energy of the ion-electron system (eV)
  ---------------------------------------------------
  alpha Z        PSCENC =       310.04809462
  Ewald energy   TEWEN  =    -15419.08751456
  -Hartree energ DENC   =     -4568.07809108
  -exchange      EXHF   =         0.00000000
  -V(xc)+E(xc)   XCENC  =       446.97605944
  PAW double counting   =     11242.08756200   -10651.34857713
  entropy T*S    EENTRO =        -0.00000000
  eigenvalues    EBANDS =     -1858.95214063
  atomic energy  EATOM  =     20224.25915541
  Solvation  Ediel_sol  =         0.00000000
  ---------------------------------------------------
  free energy    TOTEN  =      -274.09545193 eV

  energy without entropy =     -274.09545193  energy(sigma->0) =     -274.09545193


--------------------------------------------------------------------------------------------------------




--------------------------------------- Iteration      2(   3)  ---------------------------------------


    POTLOK:  cpu time    0.1345: real time    0.1349
    SETDIJ:  cpu time    0.1578: real time    0.1578
     EDDAV:  cpu time    5.8204: real time    5.8244
       DOS:  cpu time    0.0002: real time    0.0002
    --------------------------------------------
      LOOP:  cpu time    6.1129: real time    6.1173

 eigenvalue-minimisations  :   560
 total energy-change (2. order) : 0.2970704E-05  (-0.3590430E-05)
 number of electron     383.9999988 magnetization 
 augmentation part      -49.4178367 magnetization 

 Free energy of the ion-electron system (eV)
  ---------------------------------------------------
  alpha Z        PSCENC =       310.04809462
  Ewald energy   TEWEN  =    -15419.08751456
  -Hartree energ DENC   =     -4568.08724395
  -exchange      EXHF   =         0.00000000
  -V(xc)+E(xc)   XCENC  =       446.97547058
  PAW double counting   =     11242.15591943   -10651.41810226
  entropy T*S    EENTRO =        -0.00000000
  eigenvalues    EBANDS =     -1858.94122823
  atomic energy  EATOM  =     20224.25915541
  Solvation  Ediel_sol  =         0.00000000
  ---------------------------------------------------
  free energy    TOTEN  =      -274.09544896 eV

  energy without entropy =     -274.09544896  energy(sigma->0) =     -274.09544896


--------------------------------------------------------------------------------------------------------




 average (electrostatic) potential at core
  the test charge radii are     0.9406  1.4837  0.9748
  (the norm of the test charge is              1.0000)
       1 -92.6793       2 -92.6793       3 -94.2217       4 -94.2217       5 -94.0879
       6 -94.7263       7 -94.1131       8 -94.0455       9 -93.5663      10 -93.5663
      11 -93.6615      12 -93.6615      13 -94.1641      14 -94.0199      15 -94.0136
      16 -94.1579      17 -93.9892      18 -93.9892      19 -93.9821      20 -93.9821
      21 -94.7263      22 -94.0879      23 -94.0455      24 -94.1131      25 -93.9977
      26 -93.9977      27 -94.0149      28 -94.0149      29 -94.0200      30 -94.1640
      31 -94.1579      32 -94.0136      33 -93.7010      34 -93.7010      35 -94.0627
      36 -94.1246      37 -92.5407      38 -92.5407      39 -94.0687      40 -94.6542
      41 -93.9769      42 -93.9769      43 -94.1246      44 -94.0627      45 -94.0816
      46 -94.0816      47 -94.6542      48 -94.0686      49 -41.9859      50 -41.5407
      51 -41.8915      52 -41.9161      53 -41.9859      54 -41.8090      55 -41.8915
      56 -42.2184      57 -27.8321      58 -28.1227      59 -28.7425      60 -28.7830
      61 -27.8322      62 -28.1227      63 -28.9044      64 -28.3856      65 -28.6639
      66 -28.6667      67 -28.9044      68 -28.3856      69 -28.6639      70 -28.6667
      71 -28.7425      72 -28.7830      73 -28.5186      74 -28.7496      75 -27.9696
      76 -28.7496      77 -27.9695      78 -28.8417      79 -28.5186      80 -28.8417
 
 
 
 E-fermi :   0.4322     XC(G=0):  -7.8746     alpha+bet : -7.9187


 k-point     1 :       0.0000    0.0000    0.0000
  band No.  band energies     occupation 
      1     -14.6388      2.00000
      2     -14.3773      2.00000
      3     -14.1634      2.00000
      4     -14.1386      2.00000
      5     -14.0796      2.00000
      6     -14.0551      2.00000
      7     -14.0392      2.00000
      8     -13.9175      2.00000
      9     -13.8688      2.00000
     10     -13.8310      2.00000
     11     -13.8043      2.00000
     12     -13.7709      2.00000
     13     -13.7428      2.00000
     14     -13.7291      2.00000
     15     -13.7185      2.00000
     16     -13.6768      2.00000
     17     -13.6734      2.00000
     18     -13.6579      2.00000
     19     -13.6459      2.00000
     20     -13.5985      2.00000
     21     -13.5945      2.00000
     22     -13.5794      2.00000
     23     -13.5759      2.00000
     24     -13.5516      2.00000
     25     -13.5412      2.00000
     26     -13.4988      2.00000
     27     -13.4893      2.00000
     28     -13.4581      2.00000
     29     -13.4513      2.00000
     30     -13.4439      2.00000
     31     -13.4113      2.00000
     32     -13.4066      2.00000
     33     -13.4009      2.00000
     34     -13.3794      2.00000
     35     -13.3572      2.00000
     36     -13.3422      2.00000
     37     -13.3190      2.00000
     38     -13.2998      2.00000
     39     -13.2855      2.00000
     40     -13.2737      2.00000
     41     -13.1694      2.00000
     42     -13.1157      2.00000
     43     -12.9579      2.00000
     44     -12.9269      2.00000
     45     -12.2861      2.00000
     46     -12.2625      2.00000
     47     -12.1468      2.00000
     48     -12.1418      2.00000
     49      -5.5915      2.00000
     50      -5.3054      2.00000
     51      -5.2553      2.00000
     52      -5.1448      2.00000
     53      -5.1212      2.00000
     54      -5.0897      2.00000
     55      -4.9910      2.00000
     56      -4.6674      2.00000
     57      -3.8595      2.00000
     58      -3.6749      2.00000
     59      -3.6726      2.00000
     60      -3.4770      2.00000
     61      -3.4186      2.00000
     62      -3.3885      2.00000
     63      -3.3866      2.00000
     64      -3.3618      2.00000
     65      -3.2676      2.00000
     66      -3.2466      2.00000
     67      -3.2258      2.00000
     68      -3.2233      2.00000
     69      -3.1755      2.00000
     70      -3.0652      2.00000
     71      -3.0385      2.00000
     72      -3.0062      2.00000
     73      -3.0027      2.00000
     74      -2.9683      2.00000
     75      -2.9521      2.00000
     76      -2.8924      2.00000
     77      -2.8198      2.00000
     78      -2.7562      2.00000
     79      -2.7371      2.00000
     80      -2.7310      2.00000
     81      -2.6543      2.00000
     82      -2.6182      2.00000
     83      -2.6129      2.00000
     84      -2.5914      2.00000
     85      -2.5641      2.00000
     86      -2.5509      2.00000
     87      -2.5006      2.00000
     88      -2.4514      2.00000
     89      -2.4104      2.00000
     90      -2.3877      2.00000
     91      -2.3632      2.00000
     92      -2.3473      2.00000
     93      -2.3193      2.00000
     94      -2.3131      2.00000
     95      -2.3032      2.00000
     96      -2.3028      2.00000
     97      -2.2520      2.00000
     98      -2.2172      2.00000
     99      -2.2159      2.00000
    100      -2.1902      2.00000
    101      -2.1616      2.00000
    102      -2.1407      2.00000
    103      -2.1200      2.00000
    104      -2.0617      2.00000
    105      -2.0148      2.00000
    106      -2.0023      2.00000
    107      -1.9681      2.00000
    108      -1.9492      2.00000
    109      -1.9298      2.00000
    110      -1.9104      2.00000
    111      -1.9019      2.00000
    112      -1.8858      2.00000
    113      -1.8551      2.00000
    114      -1.8245      2.00000
    115      -1.8195      2.00000
    116      -1.7909      2.00000
    117      -1.7743      2.00000
    118      -1.7180      2.00000
    119      -1.7012      2.00000
    120      -1.6833      2.00000
    121      -1.6729      2.00000
    122      -1.6712      2.00000
    123      -1.6456      2.00000
    124      -1.6404      2.00000
    125      -1.6095      2.00000
    126      -1.6064      2.00000
    127      -1.5787      2.00000
    128      -1.5576      2.00000
    129      -1.5520      2.00000
    130      -1.5253      2.00000
    131      -1.5171      2.00000
    132      -1.5114      2.00000
    133      -1.4853      2.00000
    134      -1.4630      2.00000
    135      -1.4458      2.00000
    136      -1.4392      2.00000
    137      -1.4313      2.00000
    138      -1.3904      2.00000
    139      -1.3891      2.00000
    140      -1.3797      2.00000
    141      -1.3495      2.00000
    142      -1.3480      2.00000
    143      -1.3306      2.00000
    144      -1.3295      2.00000
    145      -1.3071      2.00000
    146      -1.2966      2.00000
    147      -1.2814      2.00000
    148      -1.2662      2.00000
    149      -1.2517      2.00000
    150      -1.2418      2.00000
    151      -1.2259      2.00000
    152      -1.2084      2.00000
    153      -1.1948      2.00000
    154      -1.1812      2.00000
    155      -1.1791      2.00000
    156      -1.1562      2.00000
    157      -1.1486      2.00000
    158      -1.1173      2.00000
    159      -1.0919      2.00000
    160      -1.0821      2.00000
    161      -1.0805      2.00000
    162      -1.0741      2.00000
    163      -1.0587      2.00000
    164      -1.0525      2.00000
    165      -1.0113      2.00000
    166      -0.9920      2.00000
    167      -0.9799      2.00000
    168      -0.9724      2.00000
    169      -0.9455      2.00000
    170      -0.9288      2.00000
    171      -0.9209      2.00000
    172      -0.9052      2.00000
    173      -0.8801      2.00000
    174      -0.8585      2.00000
    175      -0.8317      2.00000
    176      -0.8002      2.00000
    177      -0.7959      2.00000
    178      -0.7583      2.00000
    179      -0.7543      2.00000
    180      -0.6712      2.00000
    181      -0.6702      2.00000
    182      -0.6000      2.00000
    183      -0.5935      2.00000
    184      -0.5235      2.00000
    185      -0.3633      2.00000
    186      -0.3536      2.00000
    187      -0.3389      2.00000
    188      -0.2742      2.00000
    189      -0.2419      2.00000
    190      -0.2262      2.00000
    191      -0.1626      2.00000
    192      -0.0635      2.00000
    193       2.4745      0.00000
    194       2.7930      0.00000
    195       2.8098      0.00000
    196       2.9307      0.00000
    197       3.1302      0.00000
    198       3.1422      0.00000
    199       3.2167      0.00000
    200       3.4225      0.00000
    201       5.6663      0.00000
    202       5.8067      0.00000
    203       5.9135      0.00000
    204       5.9609      0.00000
    205       6.0621      0.00000
    206       6.0737      0.00000
    207       6.1289      0.00000
    208       6.1830      0.00000
    209       6.2624      0.00000
    210       6.3714      0.00000
    211       6.4847      0.00000
    212       6.5312      0.00000
    213       6.6277      0.00000
    214       6.6417      0.00000
    215       6.7000      0.00000
    216       6.7377      0.00000
    217       6.8245      0.00000
    218       6.8378      0.00000
    219       6.9120      0.00000
    220       6.9676      0.00000
    221       6.9915      0.00000
    222       7.0462      0.00000
    223       7.1766      0.00000
    224       7.2353      0.00000
    225       7.2715      0.00000
    226       7.3634      0.00000
    227       7.4450      0.00000
    228       7.4645      0.00000
    229       7.5373      0.00000
    230       7.5622      0.00000
    231       7.6034      0.00000
    232       7.6999      0.00000
    233       7.7850      0.00000
    234       7.8056      0.00000
    235       7.8210      0.00000
    236       7.8774      0.00000
    237       7.8830      0.00000
    238       7.9056      0.00000
    239       7.9856      0.00000
    240       8.0205      0.00000


--------------------------------------------------------------------------------------------------------


 soft charge-density along one line, spin component           1
         0         1         2         3         4         5         6         7         8         9
 total charge-density along one line
 
 pseudopotential strength for first ion, spin component:           1
 47.403  -0.016  -0.003   0.020   0.003  -0.000   0.000   0.000
 -0.016   0.019  -0.000   0.000   0.000  -0.000   0.000   0.000
 -0.003  -0.000   9.108   0.000  -0.000   0.002  -0.000   0.000
  0.020   0.000   0.000   9.105   0.000  -0.000   0.002  -0.000
  0.003   0.000  -0.000   0.000   9.109   0.000  -0.000   0.002
 -0.000  -0.000   0.002  -0.000   0.000   0.035   0.000   0.000
  0.000   0.000  -0.000   0.002  -0.000   0.000   0.035   0.000
  0.000   0.000   0.000  -0.000   0.002   0.000   0.000   0.035
 total augmentation occupancy for first ion, spin component:           1
  1.911   0.426   0.009  -0.061  -0.010   0.011  -0.067  -0.011
  0.426   0.249  -0.054   0.338   0.055   0.013  -0.100  -0.023
  0.009  -0.054   1.759  -0.002   0.002  -0.398  -0.007   0.002
 -0.061   0.338  -0.002   1.797  -0.001  -0.007  -0.330  -0.010
 -0.010   0.055   0.002  -0.001   1.751   0.002  -0.010  -0.421
  0.011   0.013  -0.398  -0.007   0.002   0.100   0.003  -0.000
 -0.067  -0.100  -0.007  -0.330  -0.010   0.003   0.078   0.006
 -0.011  -0.023   0.002  -0.010  -0.421  -0.000   0.006   0.114


------------------------ aborting loop because EDIFF is reached ----------------------------------------


 


 total charge     
 
# of ion       s       p       d       tot
------------------------------------------
    1        1.589   3.591   0.000   5.179
    2        1.589   3.591   0.000   5.179
    3        1.599   3.534   0.000   5.133
    4        1.599   3.534   0.000   5.133
    5        1.598   3.543   0.000   5.141
    6        1.602   3.527   0.000   5.129
    7        1.598   3.539   0.000   5.137
    8        1.599   3.536   0.000   5.135
    9        1.597   3.539   0.000   5.136
   10        1.597   3.539   0.000   5.136
   11        1.594   3.555   0.000   5.148
   12        1.594   3.555   0.000   5.148
   13        1.597   3.549   0.000   5.145
   14        1.598   3.544   0.000   5.142
   15        1.599   3.543   0.000   5.142
   16        1.596   3.549   0.000   5.146
   17        1.597   3.544   0.000   5.140
   18        1.597   3.544   0.000   5.140
   19        1.595   3.548   0.000   5.143
   20        1.595   3.548   0.000   5.143
   21        1.602   3.527   0.000   5.129
   22        1.598   3.543   0.000   5.141
   23        1.599   3.536   0.000   5.135
   24        1.598   3.539   0.000   5.137
   25        1.596   3.560   0.000   5.156
   26        1.596   3.560   0.000   5.156
   27        1.596   3.546   0.000   5.142
   28        1.596   3.546   0.000   5.142
   29        1.598   3.544   0.000   5.142
   30        1.597   3.549   0.000   5.145
   31        1.596   3.549   0.000   5.146
   32        1.599   3.543   0.000   5.142
   33        1.599   3.539   0.000   5.139
   34        1.599   3.539   0.000   5.139
   35        1.596   3.552   0.000   5.147
   36        1.595   3.562   0.000   5.156
   37        1.590   3.591   0.000   5.181
   38        1.590   3.591   0.000   5.181
   39        1.599   3.537   0.000   5.136
   40        1.604   3.522   0.000   5.126
   41        1.600   3.540   0.000   5.140
   42        1.600   3.540   0.000   5.140
   43        1.595   3.562   0.000   5.156
   44        1.596   3.552   0.000   5.147
   45        1.596   3.557   0.000   5.153
   46        1.596   3.557   0.000   5.153
   47        1.604   3.522   0.000   5.126
   48        1.599   3.537   0.000   5.136
   49        0.975   1.142   0.372   2.489
   50        0.965   1.104   0.359   2.429
   51        0.971   1.147   0.382   2.499
   52        0.961   1.115   0.369   2.445
   53        0.975   1.142   0.372   2.489
   54        0.969   1.133   0.374   2.476
   55        0.971   1.147   0.382   2.499
   56        0.974   1.140   0.370   2.484
   57        0.071   0.128   0.000   0.199
   58        0.071   0.133   0.000   0.204
   59        0.056   0.101   0.000   0.158
   60        0.057   0.103   0.000   0.161
   61        0.071   0.128   0.000   0.199
   62        0.071   0.133   0.000   0.204
   63        0.056   0.100   0.000   0.156
   64        0.064   0.115   0.000   0.178
   65        0.061   0.110   0.000   0.171
   66        0.061   0.111   0.000   0.172
   67        0.056   0.100   0.000   0.156
   68        0.064   0.115   0.000   0.178
   69        0.061   0.110   0.000   0.171
   70        0.061   0.111   0.000   0.172
   71        0.056   0.101   0.000   0.158
   72        0.057   0.103   0.000   0.161
   73        0.062   0.109   0.000   0.171
   74        0.060   0.107   0.000   0.167
   75        0.068   0.126   0.000   0.195
   76        0.060   0.107   0.000   0.167
   77        0.068   0.126   0.000   0.195
   78        0.060   0.107   0.000   0.167
   79        0.062   0.109   0.000   0.171
   80        0.060   0.107   0.000   0.167
--------------------------------------------------
tot         85.909 182.067   2.978 270.953
 
    CHARGE:  cpu time    0.2225: real time    0.2226
    FORLOC:  cpu time    0.0571: real time    0.0571
    FORNL :  cpu time    1.4353: real time    1.4359
    STRESS:  cpu time    7.0461: real time    7.0516
    FORCOR:  cpu time    0.1677: real time    0.1677
    FORHAR:  cpu time    0.0812: real time    0.0812
    MIXING:  cpu time    0.0038: real time    0.0038
    OFIELD:  cpu time    0.0000: real time    0.0000

  FORCE on cell =-STRESS in cart. coord.  units (eV):
  Direction    XX          YY          ZZ          XY          YZ          ZX
  --------------------------------------------------------------------------------------
  Alpha Z   310.04809   310.04809   310.04809
  Ewald   -5111.94857 -5450.88779 -4856.34102    -0.00000    -0.00000    27.69505
  Hartree  1541.46603  1335.10913  1691.57510    -0.00000     0.00000     9.39717
  E(xc)   -1403.51825 -1403.48334 -1404.90102     0.00000     0.00000     0.12106
  Local   -4329.90038 -3799.02194 -4718.04166    -0.00000     0.00000   -38.09754
  n-local  4203.34601  4200.62848  4209.13456     0.00000     0.00000     0.58334
  augment  -980.06471  -981.10282  -979.51859    -0.00000     0.00000    -0.09464
  Kinetic  5770.79637  5791.30942  5748.32214     0.00001     0.00001     0.70215
  Fock        0.00000     0.00000     0.00000     0.00000     0.00000     0.00000
  -------------------------------------------------------------------------------------
  Total       0.22459     2.59924     0.27760     0.00000     0.00000     0.30659
  in kB       0.19334     2.23762     0.23898     0.00000     0.00000     0.26393
  external pressure =        0.89 kB  Pullay stress =        0.00 kB


 VOLUME and BASIS-vectors are now :
 -----------------------------------------------------------------------------
  energy-cutoff  :      520.00
  volume of cell :     1861.11
      direct lattice vectors                 reciprocal lattice vectors
    13.459017910  0.000000000 -0.273085008     0.074898101  0.000000000  0.029495859
     0.000000000 11.456071877  0.000000000     0.000000000  0.087289955  0.000000000
    -4.791777054  0.000000000 12.167640179     0.001680979  0.000000000  0.082847197

  length of vectors
    13.461788088 11.456071877 13.077178399     0.080496777  0.087289955  0.082864248


 FORCES acting on ions
    electron-ion (+dipol)            ewald-force                    non-local-force                 convergence-correction
 -----------------------------------------------------------------------------------------------
   0.140E+02 0.736E+01 0.540E+02   -.142E+02 -.714E+01 -.555E+02   0.155E+00 -.214E+00 0.146E+01   -.206E-02 -.255E-02 -.149E-01
   -.140E+02 0.736E+01 -.540E+02   0.142E+02 -.714E+01 0.555E+02   -.155E+00 -.214E+00 -.146E+01   0.206E-02 -.255E-02 0.149E-01
   0.212E+02 -.720E+02 0.159E+01   -.223E+02 0.741E+02 -.319E+01   0.108E+01 -.213E+01 0.160E+01   -.128E-01 0.206E-01 -.782E-02
   -.212E+02 -.720E+02 -.159E+01   0.223E+02 0.741E+02 0.319E+01   -.108E+01 -.213E+01 -.160E+01   0.128E-01 0.206E-01 0.782E-02
   -.403E+02 -.418E+02 0.358E+01   0.411E+02 0.436E+02 -.276E+01   -.819E+00 -.185E+01 -.815E+00   0.619E-02 0.713E-02 0.680E-03
   -.322E+02 -.389E+02 0.274E+02   0.331E+02 0.399E+02 -.289E+02   -.993E+00 -.927E+00 0.145E+01   0.132E-01 0.226E-02 -.122E-01
   0.223E+02 0.759E+02 -.426E+01   -.234E+02 -.780E+02 0.343E+01   0.115E+01 0.212E+01 0.824E+00   -.113E-01 -.103E-01 -.524E-03
   -.249E+02 0.512E+02 0.156E+02   0.257E+02 -.535E+02 -.144E+02   -.868E+00 0.230E+01 -.123E+01   0.720E-02 -.610E-02 0.224E-02
   -.178E+02 -.445E+02 -.266E+01   0.186E+02 0.463E+02 0.354E+01   -.739E+00 -.176E+01 -.875E+00   0.836E-02 0.604E-02 -.238E-02
   0.178E+02 -.445E+02 0.266E+01   -.186E+02 0.463E+02 -.354E+01   0.739E+00 -.176E+01 0.875E+00   -.836E-02 0.604E-02 0.238E-02
   0.216E+02 0.269E+02 -.667E+01   -.221E+02 -.280E+02 0.645E+01   0.506E+00 0.110E+01 0.210E+00   -.354E-02 -.325E-02 0.428E-02
   -.216E+02 0.269E+02 0.667E+01   0.221E+02 -.280E+02 -.645E+01   -.506E+00 0.110E+01 -.210E+00   0.354E-02 -.325E-02 -.428E-02
   -.264E+02 -.403E+02 0.409E+01   0.275E+02 0.418E+02 -.363E+01   -.118E+01 -.158E+01 -.461E+00   0.233E-02 0.219E-02 0.336E-02
   0.195E+02 -.431E+02 -.145E+02   -.205E+02 0.451E+02 0.137E+02   0.996E+00 -.198E+01 0.775E+00   -.833E-02 0.982E-02 -.994E-03
   0.239E+02 0.585E+02 0.133E+01   -.249E+02 -.608E+02 -.193E+01   0.108E+01 0.228E+01 0.595E+00   -.650E-02 -.697E-02 -.264E-02
   -.157E+02 0.471E+02 -.223E+01   0.165E+02 -.486E+02 0.307E+01   -.790E+00 0.153E+01 -.825E+00   0.459E-02 -.116E-02 -.544E-02
   -.247E+02 -.489E+02 0.717E+01   0.257E+02 0.504E+02 -.630E+01   -.984E+00 -.156E+01 -.872E+00   0.468E-02 0.179E-02 0.250E-03
   0.247E+02 -.489E+02 -.717E+01   -.257E+02 0.504E+02 0.630E+01   0.984E+00 -.156E+01 0.872E+00   -.468E-02 0.179E-02 -.250E-03
   0.186E+02 0.363E+02 -.688E+01   -.194E+02 -.377E+02 0.626E+01   0.796E+00 0.145E+01 0.626E+00   -.866E-02 -.550E-02 -.312E-02
   -.186E+02 0.363E+02 0.688E+01   0.194E+02 -.377E+02 -.626E+01   -.796E+00 0.145E+01 -.626E+00   0.866E-02 -.550E-02 0.312E-02
   0.322E+02 -.389E+02 -.274E+02   -.331E+02 0.399E+02 0.289E+02   0.993E+00 -.927E+00 -.145E+01   -.132E-01 0.226E-02 0.122E-01
   0.403E+02 -.418E+02 -.358E+01   -.411E+02 0.436E+02 0.276E+01   0.819E+00 -.185E+01 0.815E+00   -.619E-02 0.713E-02 -.680E-03
   0.249E+02 0.512E+02 -.156E+02   -.257E+02 -.535E+02 0.144E+02   0.868E+00 0.230E+01 0.123E+01   -.720E-02 -.610E-02 -.224E-02
   -.223E+02 0.759E+02 0.426E+01   0.234E+02 -.780E+02 -.343E+01   -.115E+01 0.212E+01 -.824E+00   0.113E-01 -.103E-01 0.524E-03
   -.253E+02 -.371E+02 0.538E+01   0.256E+02 0.386E+02 -.487E+01   -.310E+00 -.146E+01 -.518E+00   0.728E-02 0.288E-03 0.272E-02
   0.253E+02 -.371E+02 -.538E+01   -.256E+02 0.386E+02 0.487E+01   0.310E+00 -.146E+01 0.518E+00   -.728E-02 0.288E-03 -.272E-02
   0.247E+02 0.293E+02 -.737E+01   -.255E+02 -.304E+02 0.643E+01   0.861E+00 0.119E+01 0.940E+00   -.604E-02 -.270E-02 -.828E-03
   -.247E+02 0.293E+02 0.737E+01   0.255E+02 -.304E+02 -.643E+01   -.861E+00 0.119E+01 -.940E+00   0.604E-02 -.270E-02 0.828E-03
   -.195E+02 -.431E+02 0.145E+02   0.205E+02 0.451E+02 -.137E+02   -.996E+00 -.198E+01 -.775E+00   0.833E-02 0.982E-02 0.994E-03
   0.264E+02 -.403E+02 -.409E+01   -.275E+02 0.418E+02 0.363E+01   0.118E+01 -.158E+01 0.461E+00   -.233E-02 0.219E-02 -.336E-02
   0.157E+02 0.471E+02 0.223E+01   -.165E+02 -.486E+02 -.307E+01   0.790E+00 0.153E+01 0.825E+00   -.459E-02 -.116E-02 0.544E-02
   -.239E+02 0.585E+02 -.133E+01   0.249E+02 -.608E+02 0.193E+01   -.108E+01 0.228E+01 -.595E+00   0.650E-02 -.697E-02 0.264E-02
   -.530E+02 -.118E+02 0.108E+01   0.556E+02 0.119E+02 -.152E+01   -.261E+01 -.348E-01 0.448E+00   0.143E-01 0.214E-02 -.529E-02
   0.530E+02 -.118E+02 -.108E+01   -.556E+02 0.119E+02 0.152E+01   0.261E+01 -.348E-01 -.448E+00   -.143E-01 0.214E-02 0.529E-02
   -.441E+02 0.754E+01 -.181E+02   0.456E+02 -.777E+01 0.174E+02   -.152E+01 0.230E+00 0.717E+00   0.131E-01 0.169E-03 -.541E-02
   0.383E+02 0.697E+01 0.131E+02   -.397E+02 -.668E+01 -.128E+02   0.144E+01 -.293E+00 -.320E+00   -.173E-01 0.145E-02 0.586E-02
   0.882E+01 -.299E+02 -.565E+02   -.885E+01 0.299E+02 0.581E+02   0.175E-01 -.186E-01 -.157E+01   0.307E-02 0.324E-02 0.955E-02
   -.882E+01 -.299E+02 0.565E+02   0.885E+01 0.299E+02 -.581E+02   -.175E-01 -.186E-01 0.157E+01   -.307E-02 0.324E-02 -.955E-02
   -.557E+02 0.517E+01 -.172E+02   0.583E+02 -.483E+01 0.164E+02   -.264E+01 -.336E+00 0.757E+00   0.164E-01 0.231E-02 -.111E-01
   0.156E+02 0.628E+02 -.213E+02   -.163E+02 -.644E+02 0.226E+02   0.763E+00 0.160E+01 -.138E+01   -.941E-02 -.107E-01 0.954E-02
   -.542E+02 -.463E+01 -.143E+02   0.569E+02 0.449E+01 0.140E+02   -.273E+01 0.138E+00 0.294E+00   0.163E-01 0.137E-03 -.794E-02
   0.542E+02 -.463E+01 0.143E+02   -.569E+02 0.449E+01 -.140E+02   0.273E+01 0.138E+00 -.294E+00   -.163E-01 0.137E-03 0.794E-02
   -.383E+02 0.697E+01 -.131E+02   0.397E+02 -.668E+01 0.128E+02   -.144E+01 -.293E+00 0.320E+00   0.173E-01 0.145E-02 -.586E-02
   0.441E+02 0.754E+01 0.181E+02   -.456E+02 -.777E+01 -.174E+02   0.152E+01 0.230E+00 -.717E+00   -.131E-01 0.169E-03 0.541E-02
   -.537E+02 -.814E+01 -.241E+02   0.555E+02 0.811E+01 0.237E+02   -.178E+01 0.371E-01 0.402E+00   0.176E-01 0.493E-03 -.638E-02
   0.537E+02 -.814E+01 0.241E+02   -.555E+02 0.811E+01 -.237E+02   0.178E+01 0.371E-01 -.402E+00   -.176E-01 0.493E-03 0.638E-02
   -.156E+02 0.628E+02 0.213E+02   0.163E+02 -.644E+02 -.226E+02   -.763E+00 0.160E+01 0.138E+01   0.941E-02 -.107E-01 -.954E-02
   0.557E+02 0.517E+01 0.172E+02   -.583E+02 -.483E+01 -.164E+02   0.264E+01 -.336E+00 -.757E+00   -.164E-01 0.231E-02 0.111E-01
   -.752E+01 0.941E+01 0.123E+01   0.915E+01 -.104E+02 -.115E+01   -.163E+01 0.957E+00 -.782E-01   0.862E-03 -.508E-03 -.492E-03
   -.484E-06 -.216E+01 -.948E-06   -.354E-05 0.330E+01 -.697E-05   0.000E+00 -.115E+01 0.000E+00   -.424E-09 -.767E-03 -.258E-08
   -.288E+01 0.306E+01 -.357E+01   0.256E+01 -.323E+01 0.265E+01   0.320E+00 0.170E+00 0.926E+00   -.906E-03 0.120E-04 0.485E-03
   0.637E-06 -.253E+01 0.986E-06   0.467E-05 0.293E+01 0.724E-05   0.000E+00 -.394E+00 0.000E+00   0.912E-09 -.103E-03 0.720E-09
   0.752E+01 0.941E+01 -.123E+01   -.915E+01 -.104E+02 0.115E+01   0.163E+01 0.957E+00 0.782E-01   -.862E-03 -.508E-03 0.492E-03
   -.489E-06 0.271E+01 -.899E-06   -.358E-05 -.253E+01 -.661E-05   0.000E+00 -.176E+00 0.000E+00   -.239E-09 -.294E-03 -.581E-09
   0.288E+01 0.306E+01 0.357E+01   -.256E+01 -.323E+01 -.265E+01   -.320E+00 0.170E+00 -.926E+00   0.906E-03 0.120E-04 -.485E-03
   0.186E-07 -.125E+02 0.147E-05   0.100E-06 0.138E+02 0.109E-04   0.000E+00 -.135E+01 0.000E+00   0.113E-08 0.156E-02 -.280E-08
   0.597E+00 -.871E+01 0.264E+01   -.210E+00 0.780E+01 -.332E+01   -.389E+00 0.905E+00 0.679E+00   0.344E-03 0.127E-03 -.468E-03
   0.329E+01 0.481E+01 -.415E+00   -.280E+01 -.362E+01 0.615E+00   -.486E+00 -.119E+01 -.198E+00   -.212E-03 0.530E-04 -.868E-04
   -.305E+01 -.409E+01 -.464E+01   0.291E+01 0.399E+01 0.457E+01   0.134E+00 0.989E-01 0.743E-01   0.439E-04 0.567E-03 0.240E-03
   -.772E+00 0.103E+02 -.120E+01   0.724E+00 -.963E+01 0.121E+01   0.506E-01 -.683E+00 -.414E-02   -.203E-03 -.288E-05 -.838E-04
   -.597E+00 -.871E+01 -.264E+01   0.210E+00 0.780E+01 0.332E+01   0.389E+00 0.905E+00 -.679E+00   -.344E-03 0.127E-03 0.468E-03
   -.329E+01 0.481E+01 0.415E+00   0.280E+01 -.362E+01 -.615E+00   0.486E+00 -.119E+01 0.198E+00   0.212E-03 0.530E-04 0.868E-04
   0.184E+01 -.554E+01 -.341E+01   -.150E+01 0.516E+01 0.298E+01   -.346E+00 0.373E+00 0.426E+00   -.154E-03 0.125E-03 0.933E-04
   -.681E+00 -.738E-01 -.434E-01   0.149E+00 -.731E+00 -.262E+00   0.531E+00 0.802E+00 0.306E+00   -.167E-03 -.439E-03 -.218E-03
   -.125E+01 -.813E+01 0.792E+00   0.131E+01 0.746E+01 -.713E+00   -.568E-01 0.670E+00 -.767E-01   -.596E-04 -.834E-04 -.275E-04
   0.393E+00 0.816E+01 -.682E+00   -.417E+00 -.737E+01 0.663E+00   0.237E-01 -.784E+00 0.205E-01   -.504E-05 -.391E-04 0.264E-04
   -.184E+01 -.554E+01 0.341E+01   0.150E+01 0.516E+01 -.298E+01   0.346E+00 0.373E+00 -.426E+00   0.154E-03 0.125E-03 -.933E-04
   0.681E+00 -.738E-01 0.434E-01   -.149E+00 -.731E+00 0.262E+00   -.531E+00 0.802E+00 -.306E+00   0.167E-03 -.439E-03 0.218E-03
   0.125E+01 -.813E+01 -.792E+00   -.131E+01 0.746E+01 0.713E+00   0.568E-01 0.670E+00 0.767E-01   0.596E-04 -.834E-04 0.275E-04
   -.393E+00 0.816E+01 0.682E+00   0.417E+00 -.737E+01 -.663E+00   -.237E-01 -.784E+00 -.205E-01   0.504E-05 -.391E-04 -.264E-04
   0.305E+01 -.409E+01 0.464E+01   -.291E+01 0.399E+01 -.457E+01   -.134E+00 0.989E-01 -.743E-01   -.439E-04 0.567E-03 -.240E-03
   0.772E+00 0.103E+02 0.120E+01   -.724E+00 -.963E+01 -.121E+01   -.506E-01 -.683E+00 0.414E-02   0.203E-03 -.288E-05 0.838E-04
   0.464E+01 0.449E+01 0.429E+01   -.495E+01 -.339E+01 -.444E+01   0.307E+00 -.109E+01 0.145E+00   -.320E-03 -.183E-03 -.452E-03
   -.266E+01 0.578E+00 -.474E+00   0.257E+01 -.633E+00 0.367E+00   0.820E-01 0.560E-01 0.105E+00   0.148E-03 0.467E-04 -.398E-04
   -.538E+01 -.166E+01 -.364E+00   0.437E+01 0.171E+01 0.724E+00   0.101E+01 -.567E-01 -.361E+00   0.952E-04 -.968E-04 0.510E-04
   0.266E+01 0.578E+00 0.474E+00   -.257E+01 -.633E+00 -.367E+00   -.820E-01 0.560E-01 -.105E+00   -.148E-03 0.467E-04 0.398E-04
   0.538E+01 -.166E+01 0.364E+00   -.437E+01 0.171E+01 -.724E+00   -.101E+01 -.567E-01 0.361E+00   -.952E-04 -.968E-04 -.510E-04
   0.899E+00 0.187E+01 0.348E+00   -.770E+00 -.219E+01 -.836E-02   -.129E+00 0.315E+00 -.340E+00   -.351E-03 -.631E-04 0.297E-03
   -.464E+01 0.449E+01 -.429E+01   0.495E+01 -.339E+01 0.444E+01   -.307E+00 -.109E+01 -.145E+00   0.320E-03 -.183E-03 0.452E-03
   -.899E+00 0.187E+01 -.348E+00   0.770E+00 -.219E+01 0.836E-02   0.129E+00 0.315E+00 0.340E+00   0.351E-03 -.631E-04 -.297E-03
 -----------------------------------------------------------------------------------------------
   0.274E-03 0.231E+01 -.697E-03   0.741E-13 -.600E-13 0.513E-13   -.916E-15 -.233E+01 -.222E-15   0.332E-08 0.210E-01 -.210E-07
 
 
 POSITION                                       TOTAL-FORCE (eV/Angst)
 -----------------------------------------------------------------------------------
      1.01685      1.92056      1.89259        -0.000978      0.000109      0.014660
      7.65039      1.92056     10.00196         0.000978      0.000109     -0.014660
      7.76633      9.34578     10.19143         0.010077     -0.012297     -0.002697
      0.90092      9.34578      1.70313        -0.010077     -0.012297      0.002697
      4.19998      7.46026      1.63901        -0.004802     -0.003907      0.003186
     -2.65331      7.54695     10.69516        -0.010228     -0.001180      0.007420
     -2.34190      4.07176     10.45545         0.010484      0.007751     -0.004994
      4.23856      3.97404      1.59955        -0.009536      0.002297      0.000709
     -1.47785      1.72831      7.73927        -0.010089     -0.005130      0.004642
     10.14509      1.72831      4.15528         0.010089     -0.005130     -0.004642
     10.07837      9.61966      4.16510         0.002506      0.000537     -0.005859
     -1.41113      9.61966      7.72946        -0.002506      0.000537      0.005859
      2.05063      7.46551      7.58965        -0.001555     -0.000779     -0.001969
     -0.04230      7.40542      4.47480         0.004982     -0.006490     -0.003035
     -0.08978      3.92830      4.63258         0.003258      0.003021     -0.000249
      1.88401      4.01438      7.75877        -0.005470      0.002492      0.008073
      7.67971      1.76030      1.49469        -0.003163     -0.001483      0.001494
      0.98753      1.76030     10.39986         0.003163     -0.001483     -0.001494
      1.04252      9.71540     10.39322         0.007076      0.002566     -0.000468
      7.62472      9.71540      1.50133        -0.007076      0.002566      0.000468
     11.32055      7.54695      1.19940         0.010228     -0.001180     -0.007420
      4.46726      7.46026     10.25554         0.004802     -0.003907     -0.003186
      4.42868      3.97404     10.29500         0.009536      0.002297     -0.000709
     11.00914      4.07176      1.43910        -0.010484      0.007751      0.004994
      5.08953      1.80566      7.57648        -0.007279      0.002399      0.000018
      3.57772      1.80566      4.31808         0.007279      0.002399     -0.000018
      3.37638      9.75346      4.20195         0.004297      0.002832     -0.003810
      5.29086      9.75346      7.69261        -0.004297      0.002832      0.003810
      8.70954      7.40542      7.41975        -0.004982     -0.006490      0.003035
      6.61661      7.46551      4.30491         0.001555     -0.000779      0.001969
      6.78323      4.01438      4.13579         0.005470      0.002492     -0.008073
      8.75703      3.92830      7.26198        -0.003258      0.003021      0.000249
     -0.33342     11.33672      4.64429        -0.009204     -0.004806      0.004015
      9.00067     11.33672      7.25026         0.009204     -0.004806     -0.004015
      2.98753      5.62718      4.50733        -0.010074     -0.001414      0.004148
     -1.12679      5.88538      7.61639         0.010948     -0.000730     -0.003804
     -2.53523     11.33208     10.68615        -0.003827     -0.001787     -0.004103
     11.20247     11.33208      1.20841         0.003827     -0.001787      0.004103
      0.60499      5.97001     10.65675        -0.010838      0.002558      0.008400
      1.11928      5.82431      1.32730         0.009140      0.007131     -0.008264
      6.45325     11.37342      4.58711        -0.010895     -0.000718      0.006820
      2.21399     11.37342      7.30745         0.010895     -0.000718     -0.006820
      9.79403      5.88538      4.27817        -0.010948     -0.000730      0.003804
      5.67971      5.62718      7.38722         0.010074     -0.001414     -0.004148
      4.01568      0.03574     10.53252        -0.010078      0.000879      0.004244
      4.65156      0.03574      1.36204         0.010078      0.000879     -0.004244
      7.54796      5.82431     10.56725        -0.009140      0.007131      0.008264
      8.06225      5.97001      1.23780         0.010838      0.002558     -0.008400
      3.41665      5.68523     -0.01178        -0.003131      0.002146      0.002820
     -2.39589      0.01370      6.08382         0.000000     -0.006332      0.000000
      0.95341      5.71051      6.06962        -0.003435      0.000427      0.000747
      6.72951      0.03916     -0.13654         0.000000     -0.000346      0.000000
      5.25059      5.68523     11.90634         0.003131      0.002146     -0.002820
      4.33362     11.39767      5.94728         0.000000      0.002785      0.000000
      7.71383      5.71051      5.82494         0.003435      0.000427     -0.000747
      0.00000      7.78654      0.00000         0.000000     -0.000608      0.000000
     12.37097      1.40387      2.47161        -0.001728     -0.004012      0.000279
     -3.43063      9.87539      9.15167        -0.000265      0.000539      0.002744
      2.10942      7.61631      3.14363         0.000289      0.000473      0.001197
     -0.20682      4.11813      9.14809         0.001702      0.006235      0.002466
     -3.70373      1.40387      9.42295         0.001728     -0.004012     -0.000279
     12.09787      9.87539      2.74289         0.000265      0.000539     -0.002744
     -0.00949      7.75716      8.87341        -0.000191      0.001373     -0.004342
      1.99408      3.48417      3.27651        -0.001194     -0.002347      0.000844
      5.71705      1.64851      3.01843         0.002362      0.000625      0.002166
      3.11613      9.80290      8.97666         0.000039      0.002055      0.001485
      8.67674      7.75716      3.02114         0.000191      0.001373      0.004342
      6.67316      3.48417      8.61804         0.001194     -0.002347     -0.000844
      2.95019      1.64851      8.87613        -0.002362      0.000625     -0.002166
      5.55111      9.80290      2.91789        -0.000039      0.002055     -0.001485
      6.55782      7.61631      8.75093        -0.000289      0.000473     -0.001197
      8.87407      4.11813      2.74646        -0.001702      0.006235     -0.002466
      2.44706      0.29697      2.63027        -0.000521      0.002645     -0.000465
      5.20913      5.69988      3.12634        -0.001129      0.000844     -0.001914
     -0.66604      0.01604      9.35132        -0.002729     -0.001304     -0.000432
      3.45811      5.69988      8.76822         0.001129      0.000844      0.001914
      9.33328      0.01604      2.54323         0.002729     -0.001304      0.000432
     12.04601      5.57809      3.16449         0.000657     -0.001300     -0.000285
      6.22018      0.29697      9.26429         0.000521      0.002645      0.000465
     -3.37877      5.57809      8.73007        -0.000657     -0.001300      0.000285
 -----------------------------------------------------------------------------------
    total drift:                                0.000274     -0.002076     -0.000697


--------------------------------------------------------------------------------------------------------



  FREE ENERGIE OF THE ION-ELECTRON SYSTEM (eV)
  ---------------------------------------------------
  free  energy   TOTEN  =      -274.09544896 eV

  energy  without entropy=     -274.09544896  energy(sigma->0) =     -274.09544896
 
 d Force = 0.4719167E-03[ 0.377E-03, 0.567E-03]  d Energy = 0.4820250E-03-0.101E-04
 d Force =-0.1529789E+01[-0.153E+01,-0.153E+01]  d Ewald  =-0.1529787E+01-0.156E-05


--------------------------------------------------------------------------------------------------------


    POTLOK:  cpu time    0.2911: real time    0.2913


--------------------------------------------------------------------------------------------------------


 Steepest descent step on ions:
 trial-energy change:   -0.000482  1 .order   -0.000472   -0.000567   -0.000377
  (g-gl).g = 0.567E-03      g.g   = 0.567E-03  gl.gl    = 0.000E+00
 g(Force)  = 0.567E-03   g(Stress)= 0.000E+00 ortho     = 0.000E+00
 gamma     =   0.00000
 trial     =   1.00000
 opt step  =   2.98357  (harmonic =   2.98357) maximal distance =0.00261686
 next E    =  -274.095813   (d E  =  -0.00085)


--------------------------------------------------------------------------------------------------------


    WAVPRE:  cpu time    0.0692: real time    0.0709
    FEWALD:  cpu time    0.0017: real time    0.0017
    ORTHCH:  cpu time    0.9017: real time    0.9022
     LOOP+:  cpu time   29.2169: real time   29.2638


--------------------------------------- Iteration      3(   1)  ---------------------------------------


    POTLOK:  cpu time    0.1286: real time    0.1433
    SETDIJ:  cpu time    0.1578: real time    0.1579
     EDDAV:  cpu time    5.8172: real time    5.8241
       DOS:  cpu time    0.0002: real time    0.0002
    CHARGE:  cpu time    0.2241: real time    0.2242
    MIXING:  cpu time    0.0037: real time    0.0037
    --------------------------------------------
      LOOP:  cpu time    6.3317: real time    6.3534

 eigenvalue-minimisations  :   560
 total energy-change (2. order) : 0.4208421E-03  (-0.1903023E-01)
 number of electron     383.9999990 magnetization 
 augmentation part      -49.4196744 magnetization 

 Broyden mixing:
  rms(total) = 0.74954E-02    rms(broyden)= 0.74942E-02
  rms(prec ) = 0.86030E-02
  weight for this iteration     100.00

 Free energy of the ion-electron system (eV)
  ---------------------------------------------------
  alpha Z        PSCENC =       310.04809462
  Ewald energy   TEWEN  =    -15416.04201094
  -Hartree energ DENC   =     -4570.75209911
  -exchange      EXHF   =         0.00000000
  -V(xc)+E(xc)   XCENC  =       447.01797011
  PAW double counting   =     11242.32741259   -10651.59239100
  entropy T*S    EENTRO =        -0.00000000
  eigenvalues    EBANDS =     -1859.36116275
  atomic energy  EATOM  =     20224.25915541
  Solvation  Ediel_sol  =         0.00000000
  ---------------------------------------------------
  free energy    TOTEN  =      -274.09503109 eV

  energy without entropy =     -274.09503109  energy(sigma->0) =     -274.09503109


--------------------------------------------------------------------------------------------------------




--------------------------------------- Iteration      3(   2)  ---------------------------------------


    POTLOK:  cpu time    0.1307: real time    0.1353
    SETDIJ:  cpu time    0.1573: real time    0.1574
     EDDAV:  cpu time    5.9208: real time    5.9270
       DOS:  cpu time    0.0001: real time    0.0001
    CHARGE:  cpu time    0.2237: real time    0.2237
    MIXING:  cpu time    0.0045: real time    0.0045
    --------------------------------------------
      LOOP:  cpu time    6.4371: real time    6.4480

 eigenvalue-minimisations  :   560
 total energy-change (2. order) :-0.8334133E-03  (-0.8915451E-03)
 number of electron     383.9999990 magnetization 
 augmentation part      -49.4183492 magnetization 

 Broyden mixing:
  rms(total) = 0.30509E-02    rms(broyden)= 0.30473E-02
  rms(prec ) = 0.41588E-02
  weight for this iteration     100.00

 eigenvalues of (default mixing * dielectric matrix)
  average eigenvalue GAMMA=   0.8236
  0.8236

 Free energy of the ion-electron system (eV)
  ---------------------------------------------------
  alpha Z        PSCENC =       310.04809462
  Ewald energy   TEWEN  =    -15416.04201094
  -Hartree energ DENC   =     -4570.80237005
  -exchange      EXHF   =         0.00000000
  -V(xc)+E(xc)   XCENC  =       447.01899255
  PAW double counting   =     11242.73090209   -10652.00023839
  entropy T*S    EENTRO =        -0.00000000
  eigenvalues    EBANDS =     -1859.30838978
  atomic energy  EATOM  =     20224.25915541
  Solvation  Ediel_sol  =         0.00000000
  ---------------------------------------------------
  free energy    TOTEN  =      -274.09586450 eV

  energy without entropy =     -274.09586450  energy(sigma->0) =     -274.09586450


--------------------------------------------------------------------------------------------------------




--------------------------------------- Iteration      3(   3)  ---------------------------------------


    POTLOK:  cpu time    0.1306: real time    0.1348
    SETDIJ:  cpu time    0.1576: real time    0.1577
     EDDAV:  cpu time    6.1472: real time    6.1517
       DOS:  cpu time    0.0001: real time    0.0001
    CHARGE:  cpu time    0.2234: real time    0.2235
    MIXING:  cpu time    0.0044: real time    0.0044
    --------------------------------------------
      LOOP:  cpu time    6.6635: real time    6.6723

 eigenvalue-minimisations  :   600
 total energy-change (2. order) : 0.1655440E-04  (-0.1443066E-04)
 number of electron     383.9999990 magnetization 
 augmentation part      -49.4174891 magnetization 

 Broyden mixing:
  rms(total) = 0.25161E-02    rms(broyden)= 0.25160E-02
  rms(prec ) = 0.33395E-02
  weight for this iteration     100.00

 eigenvalues of (default mixing * dielectric matrix)
  average eigenvalue GAMMA=   1.4946
  1.1492  1.8400

 Free energy of the ion-electron system (eV)
  ---------------------------------------------------
  alpha Z        PSCENC =       310.04809462
  Ewald energy   TEWEN  =    -15416.04201094
  -Hartree energ DENC   =     -4570.82815286
  -exchange      EXHF   =         0.00000000
  -V(xc)+E(xc)   XCENC  =       447.01824954
  PAW double counting   =     11242.93991306   -10652.21245137
  entropy T*S    EENTRO =        -0.00000000
  eigenvalues    EBANDS =     -1859.27864540
  atomic energy  EATOM  =     20224.25915541
  Solvation  Ediel_sol  =         0.00000000
  ---------------------------------------------------
  free energy    TOTEN  =      -274.09584795 eV

  energy without entropy =     -274.09584795  energy(sigma->0) =     -274.09584795


--------------------------------------------------------------------------------------------------------




--------------------------------------- Iteration      3(   4)  ---------------------------------------


    POTLOK:  cpu time    0.1305: real time    0.1347
    SETDIJ:  cpu time    0.1577: real time    0.1578
     EDDAV:  cpu time    5.8227: real time    5.8279
       DOS:  cpu time    0.0002: real time    0.0002
    CHARGE:  cpu time    0.2238: real time    0.2238
    MIXING:  cpu time    0.0047: real time    0.0047
    --------------------------------------------
      LOOP:  cpu time    6.3397: real time    6.3491

 eigenvalue-minimisations  :   560
 total energy-change (2. order) : 0.2285977E-04  (-0.1034499E-04)
 number of electron     383.9999990 magnetization 
 augmentation part      -49.4166075 magnetization 

 Broyden mixing:
  rms(total) = 0.94906E-03    rms(broyden)= 0.94906E-03
  rms(prec ) = 0.11319E-02
  weight for this iteration     100.00

 eigenvalues of (default mixing * dielectric matrix)
  average eigenvalue GAMMA=   1.5387
  2.5999  1.0081  1.0081

 Free energy of the ion-electron system (eV)
  ---------------------------------------------------
  alpha Z        PSCENC =       310.04809462
  Ewald energy   TEWEN  =    -15416.04201094
  -Hartree energ DENC   =     -4570.89498984
  -exchange      EXHF   =         0.00000000
  -V(xc)+E(xc)   XCENC  =       447.01896511
  PAW double counting   =     11243.44131978   -10652.72138947
  entropy T*S    EENTRO =        -0.00000000
  eigenvalues    EBANDS =     -1859.20496975
  atomic energy  EATOM  =     20224.25915541
  Solvation  Ediel_sol  =         0.00000000
  ---------------------------------------------------
  free energy    TOTEN  =      -274.09582509 eV

  energy without entropy =     -274.09582509  energy(sigma->0) =     -274.09582509


--------------------------------------------------------------------------------------------------------




--------------------------------------- Iteration      3(   5)  ---------------------------------------


    POTLOK:  cpu time    0.1307: real time    0.1350
    SETDIJ:  cpu time    0.1574: real time    0.1575
     EDDAV:  cpu time    4.8312: real time    4.8345
       DOS:  cpu time    0.0002: real time    0.0002
    --------------------------------------------
      LOOP:  cpu time    5.1194: real time    5.1271

 eigenvalue-minimisations  :   440
 total energy-change (2. order) :-0.4198952E-05  (-0.2626041E-05)
 number of electron     383.9999990 magnetization 
 augmentation part      -49.4166075 magnetization 

 Free energy of the ion-electron system (eV)
  ---------------------------------------------------
  alpha Z        PSCENC =       310.04809462
  Ewald energy   TEWEN  =    -15416.04201094
  -Hartree energ DENC   =     -4570.90731261
  -exchange      EXHF   =         0.00000000
  -V(xc)+E(xc)   XCENC  =       447.01983092
  PAW double counting   =     11243.64910838   -10652.93228475
  entropy T*S    EENTRO =        -0.00000000
  eigenvalues    EBANDS =     -1859.19041031
  atomic energy  EATOM  =     20224.25915541
  Solvation  Ediel_sol  =         0.00000000
  ---------------------------------------------------
  free energy    TOTEN  =      -274.09582929 eV

  energy without entropy =     -274.09582929  energy(sigma->0) =     -274.09582929


--------------------------------------------------------------------------------------------------------




 average (electrostatic) potential at core
  the test charge radii are     0.9406  1.4837  0.9748
  (the norm of the test charge is              1.0000)
       1 -92.6843       2 -92.6843       3 -94.2250       4 -94.2249       5 -94.0860
       6 -94.7236       7 -94.1133       8 -94.0436       9 -93.5650      10 -93.5649
      11 -93.6632      12 -93.6632      13 -94.1614      14 -94.0221      15 -94.0140
      16 -94.1534      17 -93.9860      18 -93.9860      19 -93.9821      20 -93.9821
      21 -94.7236      22 -94.0860      23 -94.0437      24 -94.1132      25 -93.9960
      26 -93.9960      27 -94.0138      28 -94.0138      29 -94.0222      30 -94.1614
      31 -94.1534      32 -94.0140      33 -93.7039      34 -93.7039      35 -94.0599
      36 -94.1285      37 -92.5437      38 -92.5437      39 -94.0711      40 -94.6494
      41 -93.9791      42 -93.9791      43 -94.1285      44 -94.0599      45 -94.0828
      46 -94.0828      47 -94.6495      48 -94.0711      49 -41.9796      50 -41.5383
      51 -41.8863      52 -41.9105      53 -41.9796      54 -41.8043      55 -41.8863
      56 -42.2100      57 -27.8329      58 -28.1228      59 -28.7414      60 -28.7804
      61 -27.8329      62 -28.1228      63 -28.9062      64 -28.3836      65 -28.6621
      66 -28.6657      67 -28.9062      68 -28.3837      69 -28.6621      70 -28.6657
      71 -28.7414      72 -28.7804      73 -28.5220      74 -28.7487      75 -27.9700
      76 -28.7487      77 -27.9699      78 -28.8446      79 -28.5220      80 -28.8446
 
 
 
 E-fermi :   0.4273     XC(G=0):  -7.8739     alpha+bet : -7.9187


 k-point     1 :       0.0000    0.0000    0.0000
  band No.  band energies     occupation 
      1     -14.6391      2.00000
      2     -14.3770      2.00000
      3     -14.1620      2.00000
      4     -14.1392      2.00000
      5     -14.0772      2.00000
      6     -14.0555      2.00000
      7     -14.0409      2.00000
      8     -13.9194      2.00000
      9     -13.8717      2.00000
     10     -13.8314      2.00000
     11     -13.8062      2.00000
     12     -13.7725      2.00000
     13     -13.7435      2.00000
     14     -13.7303      2.00000
     15     -13.7187      2.00000
     16     -13.6769      2.00000
     17     -13.6718      2.00000
     18     -13.6592      2.00000
     19     -13.6455      2.00000
     20     -13.5984      2.00000
     21     -13.5952      2.00000
     22     -13.5811      2.00000
     23     -13.5786      2.00000
     24     -13.5528      2.00000
     25     -13.5406      2.00000
     26     -13.4986      2.00000
     27     -13.4906      2.00000
     28     -13.4589      2.00000
     29     -13.4521      2.00000
     30     -13.4438      2.00000
     31     -13.4108      2.00000
     32     -13.4063      2.00000
     33     -13.4004      2.00000
     34     -13.3793      2.00000
     35     -13.3574      2.00000
     36     -13.3420      2.00000
     37     -13.3179      2.00000
     38     -13.3011      2.00000
     39     -13.2862      2.00000
     40     -13.2742      2.00000
     41     -13.1714      2.00000
     42     -13.1166      2.00000
     43     -12.9588      2.00000
     44     -12.9264      2.00000
     45     -12.2914      2.00000
     46     -12.2681      2.00000
     47     -12.1504      2.00000
     48     -12.1456      2.00000
     49      -5.5937      2.00000
     50      -5.3059      2.00000
     51      -5.2555      2.00000
     52      -5.1455      2.00000
     53      -5.1219      2.00000
     54      -5.0901      2.00000
     55      -4.9912      2.00000
     56      -4.6695      2.00000
     57      -3.8605      2.00000
     58      -3.6755      2.00000
     59      -3.6732      2.00000
     60      -3.4778      2.00000
     61      -3.4203      2.00000
     62      -3.3897      2.00000
     63      -3.3876      2.00000
     64      -3.3623      2.00000
     65      -3.2685      2.00000
     66      -3.2468      2.00000
     67      -3.2262      2.00000
     68      -3.2239      2.00000
     69      -3.1767      2.00000
     70      -3.0657      2.00000
     71      -3.0402      2.00000
     72      -3.0076      2.00000
     73      -3.0040      2.00000
     74      -2.9691      2.00000
     75      -2.9548      2.00000
     76      -2.8929      2.00000
     77      -2.8209      2.00000
     78      -2.7573      2.00000
     79      -2.7379      2.00000
     80      -2.7328      2.00000
     81      -2.6545      2.00000
     82      -2.6197      2.00000
     83      -2.6137      2.00000
     84      -2.5921      2.00000
     85      -2.5639      2.00000
     86      -2.5509      2.00000
     87      -2.5006      2.00000
     88      -2.4522      2.00000
     89      -2.4113      2.00000
     90      -2.3870      2.00000
     91      -2.3640      2.00000
     92      -2.3477      2.00000
     93      -2.3189      2.00000
     94      -2.3130      2.00000
     95      -2.3035      2.00000
     96      -2.3023      2.00000
     97      -2.2520      2.00000
     98      -2.2179      2.00000
     99      -2.2161      2.00000
    100      -2.1901      2.00000
    101      -2.1615      2.00000
    102      -2.1412      2.00000
    103      -2.1201      2.00000
    104      -2.0615      2.00000
    105      -2.0159      2.00000
    106      -2.0026      2.00000
    107      -1.9688      2.00000
    108      -1.9494      2.00000
    109      -1.9296      2.00000
    110      -1.9106      2.00000
    111      -1.9018      2.00000
    112      -1.8865      2.00000
    113      -1.8549      2.00000
    114      -1.8238      2.00000
    115      -1.8205      2.00000
    116      -1.7914      2.00000
    117      -1.7730      2.00000
    118      -1.7179      2.00000
    119      -1.7012      2.00000
    120      -1.6839      2.00000
    121      -1.6728      2.00000
    122      -1.6721      2.00000
    123      -1.6458      2.00000
    124      -1.6410      2.00000
    125      -1.6090      2.00000
    126      -1.6067      2.00000
    127      -1.5786      2.00000
    128      -1.5566      2.00000
    129      -1.5511      2.00000
    130      -1.5244      2.00000
    131      -1.5175      2.00000
    132      -1.5119      2.00000
    133      -1.4856      2.00000
    134      -1.4625      2.00000
    135      -1.4463      2.00000
    136      -1.4378      2.00000
    137      -1.4318      2.00000
    138      -1.3900      2.00000
    139      -1.3890      2.00000
    140      -1.3798      2.00000
    141      -1.3504      2.00000
    142      -1.3476      2.00000
    143      -1.3309      2.00000
    144      -1.3294      2.00000
    145      -1.3074      2.00000
    146      -1.2967      2.00000
    147      -1.2809      2.00000
    148      -1.2659      2.00000
    149      -1.2514      2.00000
    150      -1.2425      2.00000
    151      -1.2258      2.00000
    152      -1.2082      2.00000
    153      -1.1948      2.00000
    154      -1.1802      2.00000
    155      -1.1790      2.00000
    156      -1.1568      2.00000
    157      -1.1490      2.00000
    158      -1.1175      2.00000
    159      -1.0927      2.00000
    160      -1.0818      2.00000
    161      -1.0810      2.00000
    162      -1.0736      2.00000
    163      -1.0582      2.00000
    164      -1.0526      2.00000
    165      -1.0109      2.00000
    166      -0.9922      2.00000
    167      -0.9794      2.00000
    168      -0.9727      2.00000
    169      -0.9455      2.00000
    170      -0.9284      2.00000
    171      -0.9207      2.00000
    172      -0.9050      2.00000
    173      -0.8806      2.00000
    174      -0.8612      2.00000
    175      -0.8327      2.00000
    176      -0.8007      2.00000
    177      -0.7956      2.00000
    178      -0.7595      2.00000
    179      -0.7551      2.00000
    180      -0.6732      2.00000
    181      -0.6723      2.00000
    182      -0.6045      2.00000
    183      -0.5960      2.00000
    184      -0.5265      2.00000
    185      -0.3675      2.00000
    186      -0.3569      2.00000
    187      -0.3424      2.00000
    188      -0.2768      2.00000
    189      -0.2454      2.00000
    190      -0.2286      2.00000
    191      -0.1661      2.00000
    192      -0.0673      2.00000
    193       2.4847      0.00000
    194       2.8057      0.00000
    195       2.8197      0.00000
    196       2.9399      0.00000
    197       3.1386      0.00000
    198       3.1509      0.00000
    199       3.2252      0.00000
    200       3.4290      0.00000
    201       5.6718      0.00000
    202       5.8114      0.00000
    203       5.9166      0.00000
    204       5.9635      0.00000
    205       6.0647      0.00000
    206       6.0762      0.00000
    207       6.1333      0.00000
    208       6.1878      0.00000
    209       6.2664      0.00000
    210       6.3709      0.00000
    211       6.4899      0.00000
    212       6.5366      0.00000
    213       6.6326      0.00000
    214       6.6430      0.00000
    215       6.7012      0.00000
    216       6.7417      0.00000
    217       6.8276      0.00000
    218       6.8412      0.00000
    219       6.9185      0.00000
    220       6.9725      0.00000
    221       6.9953      0.00000
    222       7.0505      0.00000
    223       7.1804      0.00000
    224       7.2368      0.00000
    225       7.2740      0.00000
    226       7.3669      0.00000
    227       7.4448      0.00000
    228       7.4623      0.00000
    229       7.5419      0.00000
    230       7.5624      0.00000
    231       7.6042      0.00000
    232       7.6993      0.00000
    233       7.7856      0.00000
    234       7.8059      0.00000
    235       7.8211      0.00000
    236       7.8775      0.00000
    237       7.8829      0.00000
    238       7.9062      0.00000
    239       7.9853      0.00000
    240       8.0132      0.00000


--------------------------------------------------------------------------------------------------------


 soft charge-density along one line, spin component           1
         0         1         2         3         4         5         6         7         8         9
 total charge-density along one line
 
 pseudopotential strength for first ion, spin component:           1
 47.405  -0.016  -0.003   0.019   0.003  -0.000   0.000   0.000
 -0.016   0.019  -0.000   0.000   0.000  -0.000   0.000   0.000
 -0.003  -0.000   9.108   0.000  -0.000   0.002  -0.000   0.000
  0.019   0.000   0.000   9.105   0.000  -0.000   0.002  -0.000
  0.003   0.000  -0.000   0.000   9.109   0.000  -0.000   0.001
 -0.000  -0.000   0.002  -0.000   0.000   0.035   0.000   0.000
  0.000   0.000  -0.000   0.002  -0.000   0.000   0.035   0.000
  0.000   0.000   0.000  -0.000   0.001   0.000   0.000   0.035
 total augmentation occupancy for first ion, spin component:           1
  1.911   0.426   0.009  -0.060  -0.010   0.011  -0.066  -0.011
  0.426   0.249  -0.054   0.337   0.055   0.013  -0.100  -0.023
  0.009  -0.054   1.759  -0.001   0.002  -0.398  -0.007   0.002
 -0.060   0.337  -0.001   1.797  -0.001  -0.007  -0.330  -0.010
 -0.010   0.055   0.002  -0.001   1.751   0.002  -0.010  -0.422
  0.011   0.013  -0.398  -0.007   0.002   0.101   0.003  -0.000
 -0.066  -0.100  -0.007  -0.330  -0.010   0.003   0.078   0.006
 -0.011  -0.023   0.002  -0.010  -0.422  -0.000   0.006   0.114


------------------------ aborting loop because EDIFF is reached ----------------------------------------


 


 total charge     
 
# of ion       s       p       d       tot
------------------------------------------
    1        1.589   3.591   0.000   5.180
    2        1.589   3.591   0.000   5.180
    3        1.599   3.535   0.000   5.134
    4        1.599   3.535   0.000   5.134
    5        1.598   3.544   0.000   5.141
    6        1.602   3.527   0.000   5.130
    7        1.598   3.539   0.000   5.137
    8        1.599   3.536   0.000   5.135
    9        1.597   3.539   0.000   5.136
   10        1.597   3.539   0.000   5.136
   11        1.594   3.555   0.000   5.149
   12        1.594   3.555   0.000   5.149
   13        1.596   3.549   0.000   5.145
   14        1.598   3.544   0.000   5.143
   15        1.599   3.543   0.000   5.142
   16        1.596   3.549   0.000   5.146
   17        1.597   3.544   0.000   5.140
   18        1.597   3.544   0.000   5.140
   19        1.595   3.548   0.000   5.143
   20        1.595   3.548   0.000   5.143
   21        1.602   3.527   0.000   5.130
   22        1.598   3.544   0.000   5.141
   23        1.599   3.536   0.000   5.135
   24        1.598   3.539   0.000   5.137
   25        1.596   3.561   0.000   5.156
   26        1.596   3.561   0.000   5.156
   27        1.596   3.546   0.000   5.142
   28        1.596   3.546   0.000   5.142
   29        1.598   3.544   0.000   5.143
   30        1.596   3.549   0.000   5.145
   31        1.596   3.549   0.000   5.146
   32        1.599   3.543   0.000   5.142
   33        1.599   3.540   0.000   5.139
   34        1.599   3.540   0.000   5.139
   35        1.596   3.552   0.000   5.147
   36        1.595   3.562   0.000   5.157
   37        1.590   3.591   0.000   5.182
   38        1.590   3.591   0.000   5.182
   39        1.599   3.537   0.000   5.136
   40        1.604   3.522   0.000   5.126
   41        1.600   3.541   0.000   5.140
   42        1.600   3.541   0.000   5.140
   43        1.595   3.562   0.000   5.157
   44        1.596   3.552   0.000   5.147
   45        1.596   3.557   0.000   5.153
   46        1.596   3.557   0.000   5.153
   47        1.604   3.522   0.000   5.126
   48        1.599   3.537   0.000   5.136
   49        0.976   1.144   0.373   2.493
   50        0.965   1.106   0.360   2.431
   51        0.971   1.149   0.383   2.502
   52        0.962   1.117   0.370   2.448
   53        0.976   1.144   0.373   2.493
   54        0.969   1.135   0.375   2.479
   55        0.971   1.149   0.383   2.502
   56        0.974   1.144   0.372   2.490
   57        0.071   0.128   0.000   0.199
   58        0.071   0.133   0.000   0.204
   59        0.056   0.102   0.000   0.158
   60        0.057   0.103   0.000   0.161
   61        0.071   0.128   0.000   0.199
   62        0.071   0.133   0.000   0.204
   63        0.056   0.100   0.000   0.156
   64        0.064   0.115   0.000   0.179
   65        0.061   0.110   0.000   0.171
   66        0.061   0.111   0.000   0.172
   67        0.056   0.100   0.000   0.156
   68        0.064   0.115   0.000   0.179
   69        0.061   0.110   0.000   0.171
   70        0.061   0.111   0.000   0.172
   71        0.056   0.102   0.000   0.158
   72        0.057   0.103   0.000   0.161
   73        0.062   0.109   0.000   0.171
   74        0.060   0.107   0.000   0.167
   75        0.068   0.126   0.000   0.195
   76        0.060   0.107   0.000   0.167
   77        0.068   0.126   0.000   0.195
   78        0.060   0.107   0.000   0.167
   79        0.062   0.109   0.000   0.171
   80        0.060   0.107   0.000   0.167
--------------------------------------------------
tot         85.911 182.099   2.987 270.996
 
    CHARGE:  cpu time    0.2214: real time    0.2217
    FORLOC:  cpu time    0.0574: real time    0.0574
    FORNL :  cpu time    1.4155: real time    1.4168
    STRESS:  cpu time    7.0299: real time    7.0570
    FORCOR:  cpu time    0.1677: real time    0.1679
    FORHAR:  cpu time    0.0811: real time    0.0813
    MIXING:  cpu time    0.0040: real time    0.0040
    OFIELD:  cpu time    0.0000: real time    0.0000

  FORCE on cell =-STRESS in cart. coord.  units (eV):
  Direction    XX          YY          ZZ          XY          YZ          ZX
  --------------------------------------------------------------------------------------
  Alpha Z   310.04809   310.04809   310.04809
  Ewald   -5110.94321 -5451.40081 -4853.78787    -0.00000    -0.00000    26.60181
  Hartree  1542.28484  1335.32329  1693.31681    -0.00000     0.00000     9.05647
  E(xc)   -1403.62547 -1403.56982 -1405.00743     0.00000     0.00000     0.13555
  Local   -4331.92467 -3799.03793 -4722.42201    -0.00000     0.00000   -36.77722
  n-local  4203.75446  4200.86933  4209.55017    -0.00000     0.00000     0.46963
  augment  -980.04997  -981.07597  -979.48961    -0.00000    -0.00000    -0.08962
  Kinetic  5771.12494  5791.76576  5748.40101     0.00001     0.00000     0.85299
  Fock        0.00000     0.00000     0.00000     0.00000     0.00000     0.00000
  -------------------------------------------------------------------------------------
  Total       0.66901     2.92193     0.60916     0.00000     0.00000     0.24962
  in kB       0.57593     2.51541     0.52441     0.00000     0.00000     0.21489
  external pressure =        1.21 kB  Pullay stress =        0.00 kB


 VOLUME and BASIS-vectors are now :
 -----------------------------------------------------------------------------
  energy-cutoff  :      520.00
  volume of cell :     1861.11
      direct lattice vectors                 reciprocal lattice vectors
    13.459017910  0.000000000 -0.273085008     0.074898101  0.000000000  0.029495859
     0.000000000 11.456071877  0.000000000     0.000000000  0.087289955  0.000000000
    -4.791777054  0.000000000 12.167640179     0.001680979  0.000000000  0.082847197

  length of vectors
    13.461788088 11.456071877 13.077178399     0.080496777  0.087289955  0.082864248


 FORCES acting on ions
    electron-ion (+dipol)            ewald-force                    non-local-force                 convergence-correction
 -----------------------------------------------------------------------------------------------
   0.140E+02 0.743E+01 0.541E+02   -.142E+02 -.722E+01 -.556E+02   0.153E+00 -.218E+00 0.146E+01   0.322E-03 0.171E-02 0.747E-03
   -.140E+02 0.743E+01 -.541E+02   0.142E+02 -.722E+01 0.556E+02   -.153E+00 -.218E+00 -.146E+01   -.322E-03 0.171E-02 -.747E-03
   0.214E+02 -.724E+02 0.183E+01   -.225E+02 0.745E+02 -.344E+01   0.108E+01 -.213E+01 0.159E+01   0.120E-02 -.478E-02 0.317E-02
   -.214E+02 -.724E+02 -.183E+01   0.225E+02 0.745E+02 0.344E+01   -.108E+01 -.213E+01 -.159E+01   -.120E-02 -.478E-02 -.317E-02
   -.405E+02 -.419E+02 0.345E+01   0.413E+02 0.438E+02 -.262E+01   -.817E+00 -.184E+01 -.811E+00   -.214E-02 -.182E-02 -.236E-02
   -.324E+02 -.390E+02 0.277E+02   0.333E+02 0.399E+02 -.291E+02   -.993E+00 -.922E+00 0.145E+01   -.172E-02 -.132E-02 0.388E-02
   0.224E+02 0.761E+02 -.417E+01   -.236E+02 -.782E+02 0.333E+01   0.115E+01 0.211E+01 0.819E+00   0.137E-02 0.255E-02 0.270E-02
   -.249E+02 0.514E+02 0.155E+02   0.258E+02 -.537E+02 -.143E+02   -.869E+00 0.229E+01 -.123E+01   -.523E-04 0.223E-02 -.164E-02
   -.179E+02 -.446E+02 -.267E+01   0.186E+02 0.464E+02 0.355E+01   -.740E+00 -.176E+01 -.873E+00   -.277E-03 -.113E-02 -.110E-02
   0.179E+02 -.446E+02 0.267E+01   -.186E+02 0.464E+02 -.355E+01   0.740E+00 -.176E+01 0.873E+00   0.277E-03 -.113E-02 0.110E-02
   0.217E+02 0.270E+02 -.663E+01   -.222E+02 -.281E+02 0.642E+01   0.503E+00 0.109E+01 0.209E+00   0.127E-02 0.185E-02 0.105E-02
   -.217E+02 0.270E+02 0.663E+01   0.222E+02 -.281E+02 -.642E+01   -.503E+00 0.109E+01 -.209E+00   -.127E-02 0.185E-02 -.105E-02
   -.264E+02 -.403E+02 0.399E+01   0.276E+02 0.419E+02 -.353E+01   -.118E+01 -.158E+01 -.458E+00   -.483E-03 -.144E-02 -.218E-02
   0.196E+02 -.433E+02 -.145E+02   -.206E+02 0.453E+02 0.137E+02   0.991E+00 -.198E+01 0.775E+00   0.217E-02 -.161E-02 0.233E-03
   0.240E+02 0.587E+02 0.139E+01   -.250E+02 -.610E+02 -.199E+01   0.107E+01 0.228E+01 0.595E+00   0.226E-02 0.196E-02 0.138E-02
   -.158E+02 0.471E+02 -.228E+01   0.166E+02 -.486E+02 0.311E+01   -.789E+00 0.153E+01 -.818E+00   -.503E-03 0.119E-02 -.233E-02
   -.248E+02 -.489E+02 0.710E+01   0.258E+02 0.505E+02 -.623E+01   -.980E+00 -.156E+01 -.869E+00   -.134E-02 -.828E-03 -.167E-02
   0.248E+02 -.489E+02 -.710E+01   -.258E+02 0.505E+02 0.623E+01   0.980E+00 -.156E+01 0.869E+00   0.134E-02 -.828E-03 0.167E-02
   0.187E+02 0.364E+02 -.676E+01   -.195E+02 -.379E+02 0.613E+01   0.794E+00 0.144E+01 0.623E+00   0.977E-03 0.156E-02 0.215E-02
   -.187E+02 0.364E+02 0.676E+01   0.195E+02 -.379E+02 -.613E+01   -.794E+00 0.144E+01 -.623E+00   -.977E-03 0.156E-02 -.215E-02
   0.324E+02 -.390E+02 -.277E+02   -.333E+02 0.399E+02 0.291E+02   0.993E+00 -.922E+00 -.145E+01   0.172E-02 -.132E-02 -.388E-02
   0.405E+02 -.419E+02 -.345E+01   -.413E+02 0.438E+02 0.262E+01   0.817E+00 -.184E+01 0.811E+00   0.214E-02 -.182E-02 0.236E-02
   0.249E+02 0.514E+02 -.155E+02   -.258E+02 -.537E+02 0.143E+02   0.869E+00 0.229E+01 0.123E+01   0.523E-04 0.223E-02 0.164E-02
   -.224E+02 0.761E+02 0.417E+01   0.236E+02 -.782E+02 -.333E+01   -.115E+01 0.211E+01 -.819E+00   -.137E-02 0.255E-02 -.270E-02
   -.253E+02 -.372E+02 0.528E+01   0.256E+02 0.387E+02 -.476E+01   -.308E+00 -.146E+01 -.513E+00   -.719E-03 -.899E-03 -.240E-02
   0.253E+02 -.372E+02 -.528E+01   -.256E+02 0.387E+02 0.476E+01   0.308E+00 -.146E+01 0.513E+00   0.719E-03 -.900E-03 0.240E-02
   0.248E+02 0.293E+02 -.725E+01   -.256E+02 -.305E+02 0.631E+01   0.855E+00 0.119E+01 0.933E+00   0.192E-02 0.102E-03 0.319E-02
   -.248E+02 0.293E+02 0.725E+01   0.256E+02 -.305E+02 -.631E+01   -.855E+00 0.119E+01 -.933E+00   -.192E-02 0.102E-03 -.319E-02
   -.196E+02 -.433E+02 0.145E+02   0.206E+02 0.453E+02 -.137E+02   -.991E+00 -.198E+01 -.775E+00   -.217E-02 -.161E-02 -.233E-03
   0.264E+02 -.403E+02 -.399E+01   -.276E+02 0.419E+02 0.353E+01   0.118E+01 -.158E+01 0.458E+00   0.483E-03 -.144E-02 0.218E-02
   0.158E+02 0.471E+02 0.228E+01   -.166E+02 -.486E+02 -.311E+01   0.789E+00 0.153E+01 0.818E+00   0.503E-03 0.119E-02 0.233E-02
   -.240E+02 0.587E+02 -.139E+01   0.250E+02 -.610E+02 0.199E+01   -.107E+01 0.228E+01 -.595E+00   -.226E-02 0.196E-02 -.138E-02
   -.532E+02 -.118E+02 0.110E+01   0.558E+02 0.119E+02 -.155E+01   -.261E+01 -.391E-01 0.452E+00   -.207E-02 0.688E-03 0.193E-03
   0.532E+02 -.118E+02 -.110E+01   -.558E+02 0.119E+02 0.155E+01   0.261E+01 -.391E-01 -.452E+00   0.207E-02 0.688E-03 -.193E-03
   -.443E+02 0.758E+01 -.181E+02   0.458E+02 -.781E+01 0.174E+02   -.152E+01 0.231E+00 0.719E+00   -.176E-02 0.455E-03 -.385E-03
   0.385E+02 0.692E+01 0.130E+02   -.399E+02 -.663E+01 -.127E+02   0.144E+01 -.290E+00 -.324E+00   0.172E-02 -.815E-03 -.412E-03
   0.882E+01 -.300E+02 -.567E+02   -.884E+01 0.300E+02 0.582E+02   0.152E-01 -.197E-01 -.156E+01   0.979E-03 -.161E-02 -.181E-02
   -.882E+01 -.300E+02 0.567E+02   0.884E+01 0.300E+02 -.582E+02   -.152E-01 -.197E-01 0.156E+01   -.979E-03 -.161E-02 0.181E-02
   -.559E+02 0.508E+01 -.171E+02   0.586E+02 -.474E+01 0.163E+02   -.264E+01 -.332E+00 0.760E+00   -.137E-02 -.148E-02 0.611E-03
   0.157E+02 0.630E+02 -.214E+02   -.164E+02 -.646E+02 0.228E+02   0.765E+00 0.160E+01 -.138E+01   0.213E-03 0.406E-02 -.134E-02
   -.545E+02 -.462E+01 -.142E+02   0.572E+02 0.448E+01 0.139E+02   -.272E+01 0.137E+00 0.299E+00   -.228E-02 0.265E-03 -.273E-03
   0.545E+02 -.462E+01 0.142E+02   -.572E+02 0.448E+01 -.139E+02   0.272E+01 0.137E+00 -.299E+00   0.228E-02 0.265E-03 0.273E-03
   -.385E+02 0.692E+01 -.130E+02   0.399E+02 -.663E+01 0.127E+02   -.144E+01 -.290E+00 0.324E+00   -.172E-02 -.815E-03 0.412E-03
   0.443E+02 0.758E+01 0.181E+02   -.458E+02 -.781E+01 -.174E+02   0.152E+01 0.231E+00 -.719E+00   0.176E-02 0.455E-03 0.385E-03
   -.540E+02 -.816E+01 -.240E+02   0.558E+02 0.813E+01 0.236E+02   -.178E+01 0.364E-01 0.406E+00   -.318E-02 -.165E-03 -.163E-03
   0.540E+02 -.816E+01 0.240E+02   -.558E+02 0.813E+01 -.236E+02   0.178E+01 0.364E-01 -.406E+00   0.318E-02 -.165E-03 0.163E-03
   -.157E+02 0.630E+02 0.214E+02   0.164E+02 -.646E+02 -.228E+02   -.765E+00 0.160E+01 0.138E+01   -.213E-03 0.406E-02 0.134E-02
   0.559E+02 0.508E+01 0.171E+02   -.586E+02 -.474E+01 -.163E+02   0.264E+01 -.332E+00 -.760E+00   0.137E-02 -.148E-02 -.611E-03
   -.753E+01 0.943E+01 0.122E+01   0.916E+01 -.104E+02 -.114E+01   -.165E+01 0.959E+00 -.708E-01   -.188E-03 0.420E-03 -.662E-04
   -.487E-06 -.217E+01 -.945E-06   -.356E-05 0.331E+01 -.695E-05   0.847E-21 -.114E+01 0.000E+00   -.370E-09 -.435E-03 -.181E-08
   -.295E+01 0.309E+01 -.367E+01   0.262E+01 -.326E+01 0.273E+01   0.341E+00 0.161E+00 0.947E+00   -.421E-03 0.156E-03 -.385E-03
   0.640E-06 -.257E+01 0.984E-06   0.468E-05 0.296E+01 0.723E-05   0.000E+00 -.385E+00 0.000E+00   0.787E-09 -.297E-03 -.584E-10
   0.753E+01 0.943E+01 -.122E+01   -.916E+01 -.104E+02 0.114E+01   0.165E+01 0.959E+00 0.708E-01   0.188E-03 0.420E-03 0.662E-04
   -.492E-06 0.273E+01 -.896E-06   -.361E-05 -.255E+01 -.659E-05   -.847E-21 -.181E+00 0.000E+00   -.174E-09 0.709E-04 0.205E-09
   0.295E+01 0.309E+01 0.367E+01   -.262E+01 -.326E+01 -.273E+01   -.341E+00 0.161E+00 -.947E+00   0.421E-03 0.156E-03 0.385E-03
   0.185E-07 -.124E+02 0.147E-05   0.988E-07 0.138E+02 0.109E-04   0.000E+00 -.138E+01 0.000E+00   0.116E-08 0.913E-04 -.374E-08
   0.578E+00 -.873E+01 0.266E+01   -.193E+00 0.782E+01 -.334E+01   -.388E+00 0.906E+00 0.680E+00   -.237E-04 -.667E-04 0.670E-04
   0.330E+01 0.482E+01 -.405E+00   -.281E+01 -.363E+01 0.606E+00   -.487E+00 -.119E+01 -.199E+00   0.775E-05 -.105E-03 0.476E-04
   -.307E+01 -.412E+01 -.466E+01   0.294E+01 0.402E+01 0.459E+01   0.135E+00 0.997E-01 0.747E-01   -.150E-03 -.116E-03 -.116E-03
   -.780E+00 0.103E+02 -.119E+01   0.732E+00 -.965E+01 0.120E+01   0.512E-01 -.683E+00 -.430E-02   -.101E-04 0.147E-03 0.414E-04
   -.578E+00 -.873E+01 -.266E+01   0.193E+00 0.782E+01 0.334E+01   0.388E+00 0.906E+00 -.680E+00   0.237E-04 -.667E-04 -.670E-04
   -.330E+01 0.482E+01 0.405E+00   0.281E+01 -.363E+01 -.606E+00   0.487E+00 -.119E+01 0.199E+00   -.775E-05 -.105E-03 -.476E-04
   0.184E+01 -.555E+01 -.343E+01   -.150E+01 0.518E+01 0.299E+01   -.346E+00 0.373E+00 0.428E+00   -.713E-04 -.801E-04 0.236E-04
   -.690E+00 -.690E-01 -.455E-01   0.158E+00 -.735E+00 -.260E+00   0.534E+00 0.805E+00 0.309E+00   -.144E-04 0.127E-03 0.635E-04
   -.126E+01 -.814E+01 0.794E+00   0.132E+01 0.747E+01 -.715E+00   -.564E-01 0.669E+00 -.768E-01   -.154E-04 -.100E-03 0.231E-04
   0.392E+00 0.817E+01 -.679E+00   -.415E+00 -.739E+01 0.660E+00   0.237E-01 -.785E+00 0.198E-01   -.178E-04 0.778E-04 0.317E-05
   -.184E+01 -.555E+01 0.343E+01   0.150E+01 0.518E+01 -.299E+01   0.346E+00 0.373E+00 -.428E+00   0.713E-04 -.801E-04 -.236E-04
   0.690E+00 -.690E-01 0.455E-01   -.158E+00 -.735E+00 0.260E+00   -.534E+00 0.805E+00 -.309E+00   0.144E-04 0.127E-03 -.635E-04
   0.126E+01 -.814E+01 -.794E+00   -.132E+01 0.747E+01 0.715E+00   0.564E-01 0.669E+00 0.768E-01   0.154E-04 -.100E-03 -.231E-04
   -.392E+00 0.817E+01 0.679E+00   0.415E+00 -.739E+01 -.660E+00   -.237E-01 -.785E+00 -.198E-01   0.178E-04 0.778E-04 -.317E-05
   0.307E+01 -.412E+01 0.466E+01   -.294E+01 0.402E+01 -.459E+01   -.135E+00 0.997E-01 -.747E-01   0.150E-03 -.116E-03 0.116E-03
   0.780E+00 0.103E+02 0.119E+01   -.732E+00 -.965E+01 -.120E+01   -.512E-01 -.683E+00 0.430E-02   0.101E-04 0.147E-03 -.414E-04
   0.463E+01 0.451E+01 0.432E+01   -.494E+01 -.342E+01 -.446E+01   0.311E+00 -.109E+01 0.144E+00   0.538E-04 -.112E-04 0.601E-04
   -.266E+01 0.581E+00 -.490E+00   0.258E+01 -.636E+00 0.382E+00   0.815E-01 0.554E-01 0.107E+00   -.516E-04 0.188E-04 -.631E-04
   -.540E+01 -.166E+01 -.372E+00   0.439E+01 0.171E+01 0.731E+00   0.101E+01 -.566E-01 -.360E+00   0.308E-06 -.806E-04 0.130E-04
   0.266E+01 0.581E+00 0.490E+00   -.258E+01 -.636E+00 -.382E+00   -.815E-01 0.554E-01 -.107E+00   0.516E-04 0.188E-04 0.631E-04
   0.540E+01 -.166E+01 0.372E+00   -.439E+01 0.171E+01 -.731E+00   -.101E+01 -.566E-01 0.360E+00   -.309E-06 -.806E-04 -.130E-04
   0.927E+00 0.188E+01 0.338E+00   -.796E+00 -.219E+01 -.522E-03   -.131E+00 0.316E+00 -.339E+00   0.833E-04 0.147E-03 -.163E-04
   -.463E+01 0.451E+01 -.432E+01   0.494E+01 -.342E+01 0.446E+01   -.311E+00 -.109E+01 -.144E+00   -.538E-04 -.112E-04 -.601E-04
   -.927E+00 0.188E+01 -.338E+00   0.796E+00 -.219E+01 0.517E-03   0.131E+00 0.316E+00 0.339E+00   -.833E-04 0.147E-03 0.163E-04
 -----------------------------------------------------------------------------------------------
   0.274E-03 0.238E+01 -.696E-03   0.411E-13 -.151E-13 -.115E-13   0.164E-14 -.239E+01 0.333E-15   -.204E-08 0.194E-02 -.972E-08
 
 
 POSITION                                       TOTAL-FORCE (eV/Angst)
 -----------------------------------------------------------------------------------
      1.01686      1.92067      1.89419        -0.003443     -0.002183      0.010058
      7.65038      1.92067     10.00036         0.003443     -0.002183     -0.010058
      7.76778      9.34373     10.19180         0.000537      0.006187     -0.018000
      0.89946      9.34373      1.70275        -0.000537      0.006187      0.018000
      4.19933      7.45955      1.63910        -0.000593      0.002958      0.008064
     -2.65469      7.54666     10.69641        -0.002639      0.001807     -0.002673
     -2.34055      4.07288     10.45519         0.004378      0.000234     -0.011140
      4.23750      3.97453      1.59941        -0.006740     -0.003730      0.005558
     -1.47892      1.72771      7.73971        -0.008093     -0.002698      0.005166
     10.14616      1.72771      4.15484         0.008093     -0.002698     -0.005166
     10.07876      9.61993      4.16457        -0.000577     -0.004283     -0.007145
     -1.41151      9.61993      7.72998         0.000577     -0.004283      0.007145
      2.05041      7.46534      7.58934        -0.000407      0.001492      0.000859
     -0.04146      7.40427      4.47482        -0.002859      0.004590     -0.009928
     -0.08917      3.92903      4.63278        -0.003421     -0.006147     -0.005190
      1.88343      4.01461      7.75959        -0.004737      0.002863      0.007970
      7.67926      1.76005      1.49473        -0.000269      0.000838      0.003685
      0.98798      1.76005     10.39982         0.000269      0.000838     -0.003685
      1.04345      9.71592     10.39340         0.002256     -0.003838     -0.005527
      7.62379      9.71592      1.50115        -0.002256     -0.003838      0.005527
     11.32193      7.54666      1.19815         0.002639      0.001807      0.002673
      4.46791      7.45955     10.25545         0.000593      0.002958     -0.008064
      4.42974      3.97453     10.29515         0.006740     -0.003730     -0.005558
     11.00779      4.07288      1.43937        -0.004378      0.000234      0.011140
      5.08865      1.80572      7.57631        -0.003948      0.006084      0.004172
      3.57859      1.80572      4.31824         0.003948      0.006084     -0.004172
      3.37698      9.75390      4.20175         0.000172     -0.000296     -0.008155
      5.29026      9.75390      7.69280        -0.000172     -0.000296      0.008155
      8.70870      7.40427      7.41973         0.002859      0.004590      0.009928
      6.61683      7.46534      4.30521         0.000407      0.001492     -0.000859
      6.78381      4.01461      4.13497         0.004737      0.002863     -0.007970
      8.75641      3.92903      7.26177         0.003421     -0.006147      0.005190
     -0.33483     11.33629      4.64485         0.002179     -0.005896      0.000079
      9.00207     11.33629      7.24970        -0.002179     -0.005896     -0.000079
      2.98622      5.62704      4.50788        -0.002804     -0.001734      0.001032
     -1.12522      5.88525      7.61578        -0.000305      0.000832      0.001754
     -2.53561     11.33190     10.68552        -0.003207     -0.001372      0.001596
     11.20285     11.33190      1.20903         0.003207     -0.001372     -0.001596
      0.60325      5.97009     10.65803         0.003885      0.006805     -0.001123
      1.12039      5.82537      1.32614         0.005327      0.000122     -0.002000
      6.45154     11.37339      4.58803         0.003017     -0.001329      0.001484
      2.21570     11.37339      7.30653        -0.003017     -0.001329     -0.001484
      9.79246      5.88525      4.27878         0.000305      0.000832     -0.001754
      5.68102      5.62704      7.38668         0.002804     -0.001734     -0.001032
      4.01412      0.03580     10.53318         0.002155      0.001324     -0.001031
      4.65312      0.03580      1.36138        -0.002155      0.001324      0.001031
      7.54685      5.82537     10.56841        -0.005327      0.000122      0.002000
      8.06399      5.97009      1.23653        -0.003885      0.006805      0.001123
      3.41679      5.68537     -0.01181        -0.013532      0.004057      0.009902
     -2.39589      0.01292      6.08382         0.000000     -0.001534      0.000000
      0.95251      5.71074      6.06923         0.010582     -0.003930      0.010786
      6.72951      0.03888     -0.13654         0.000000      0.005549      0.000000
      5.25045      5.68537     11.90636         0.013532      0.004057     -0.009902
      4.33362     11.39796      5.94728         0.000000      0.002296      0.000000
      7.71473      5.71074      5.82532        -0.010582     -0.003930     -0.010786
      0.00000      7.78743      0.00000         0.000000     -0.022663      0.000000
     12.37086      1.40342      2.47153        -0.002833     -0.002156      0.002597
     -3.43068      9.87553      9.15197        -0.000210     -0.002067      0.001906
      2.10940      7.61643      3.14374         0.001627     -0.001090      0.001073
     -0.20673      4.11879      9.14834         0.003301      0.004463      0.002276
     -3.70362      1.40342      9.42303         0.002833     -0.002156     -0.002597
     12.09792      9.87553      2.74258         0.000210     -0.002067     -0.001906
     -0.00955      7.75726      8.87301         0.000756      0.002274     -0.004054
      1.99386      3.48381      3.27648         0.001571      0.001050      0.003336
      5.71726      1.64850      3.01864         0.002963      0.002256      0.002033
      3.11611      9.80314      8.97682         0.000414      0.000866      0.001049
      8.67679      7.75726      3.02154        -0.000756      0.002274      0.004054
      6.67338      3.48381      8.61807        -0.001571      0.001050     -0.003336
      2.94998      1.64850      8.87592        -0.002963      0.002256     -0.002033
      5.55113      9.80314      2.91773        -0.000414      0.000866     -0.001049
      6.55784      7.61643      8.75081        -0.001627     -0.001090     -0.001073
      8.87397      4.11879      2.74622        -0.003301      0.004463     -0.002276
      2.44688      0.29726      2.63015         0.003172      0.001167      0.000979
      5.20902      5.69999      3.12609        -0.001390      0.000182     -0.000386
     -0.66634      0.01586      9.35130        -0.001218     -0.000176     -0.000460
      3.45822      5.69999      8.76846         0.001390      0.000182      0.000386
      9.33358      0.01586      2.54326         0.001218     -0.000176      0.000460
     12.04607      5.57797      3.16449         0.000286     -0.001348     -0.001095
      6.22036      0.29726      9.26441        -0.003172      0.001167     -0.000979
     -3.37883      5.57797      8.73006        -0.000286     -0.001348      0.001095
 -----------------------------------------------------------------------------------
    total drift:                                0.000274     -0.002145     -0.000696


--------------------------------------------------------------------------------------------------------



  FREE ENERGIE OF THE ION-ELECTRON SYSTEM (eV)
  ---------------------------------------------------
  free  energy   TOTEN  =      -274.09582929 eV

  energy  without entropy=     -274.09582929  energy(sigma->0) =     -274.09582929
 
 d Force = 0.3738686E-03[ 0.110E-06, 0.748E-03]  d Energy = 0.3803267E-03-0.646E-05
 d Force =-0.3045505E+01[-0.305E+01,-0.304E+01]  d Ewald  =-0.3045504E+01-0.128E-05


--------------------------------------------------------------------------------------------------------


    POTLOK:  cpu time    0.2905: real time    0.2906


--------------------------------------------------------------------------------------------------------




--------------------------------------------------------------------------------------------------------


    WAVPRE:  cpu time    0.0687: real time    0.0710
    FEWALD:  cpu time    0.0016: real time    0.0016
    ORTHCH:  cpu time    0.8996: real time    0.9003
     LOOP+:  cpu time   41.3087: real time   41.4009


--------------------------------------- Iteration      4(   1)  ---------------------------------------


    POTLOK:  cpu time    0.1297: real time    0.1335
    SETDIJ:  cpu time    0.1575: real time    0.1576
     EDDAV:  cpu time    5.8171: real time    5.8242
       DOS:  cpu time    0.0002: real time    0.0002
    CHARGE:  cpu time    0.2228: real time    0.2232
    MIXING:  cpu time    0.0045: real time    0.0045
    --------------------------------------------
      LOOP:  cpu time    6.3320: real time    6.3432

 eigenvalue-minimisations  :   560
 total energy-change (2. order) :-0.7450125E-04  (-0.5237083E-02)
 number of electron     383.9999990 magnetization 
 augmentation part      -49.4167751 magnetization 

 Broyden mixing:
  rms(total) = 0.43869E-02    rms(broyden)= 0.43863E-02
  rms(prec ) = 0.50839E-02
  weight for this iteration     100.00

 Free energy of the ion-electron system (eV)
  ---------------------------------------------------
  alpha Z        PSCENC =       310.04809462
  Ewald energy   TEWEN  =    -15415.13514434
  -Hartree energ DENC   =     -4571.73459575
  -exchange      EXHF   =         0.00000000
  -V(xc)+E(xc)   XCENC  =       447.03287318
  PAW double counting   =     11243.94808558   -10653.23558536
  entropy T*S    EENTRO =        -0.00000000
  eigenvalues    EBANDS =     -1859.27878292
  atomic energy  EATOM  =     20224.25915541
  Solvation  Ediel_sol  =         0.00000000
  ---------------------------------------------------
  free energy    TOTEN  =      -274.09589959 eV

  energy without entropy =     -274.09589959  energy(sigma->0) =     -274.09589959


--------------------------------------------------------------------------------------------------------




--------------------------------------- Iteration      4(   2)  ---------------------------------------


    POTLOK:  cpu time    0.1304: real time    0.1351
    SETDIJ:  cpu time    0.1575: real time    0.1576
     EDDAV:  cpu time    6.5501: real time    6.5605
       DOS:  cpu time    0.0002: real time    0.0002
    CHARGE:  cpu time    0.2958: real time    0.2959
    MIXING:  cpu time    0.0059: real time    0.0059
    --------------------------------------------
      LOOP:  cpu time    7.1401: real time    7.1553

 eigenvalue-minimisations  :   560
 total energy-change (2. order) :-0.2219916E-03  (-0.2464629E-03)
 number of electron     383.9999990 magnetization 
 augmentation part      -49.4166161 magnetization 

 Broyden mixing:
  rms(total) = 0.14566E-02    rms(broyden)= 0.14544E-02
  rms(prec ) = 0.19842E-02
  weight for this iteration     100.00

 eigenvalues of (default mixing * dielectric matrix)
  average eigenvalue GAMMA=   0.9044
  0.9044

 Free energy of the ion-electron system (eV)
  ---------------------------------------------------
  alpha Z        PSCENC =       310.04809462
  Ewald energy   TEWEN  =    -15415.13514434
  -Hartree energ DENC   =     -4571.71919044
  -exchange      EXHF   =         0.00000000
  -V(xc)+E(xc)   XCENC  =       447.03193285
  PAW double counting   =     11244.00600258   -10653.29415932
  entropy T*S    EENTRO =        -0.00000000
  eigenvalues    EBANDS =     -1859.29281294
  atomic energy  EATOM  =     20224.25915541
  Solvation  Ediel_sol  =         0.00000000
  ---------------------------------------------------
  free energy    TOTEN  =      -274.09612158 eV

  energy without entropy =     -274.09612158  energy(sigma->0) =     -274.09612158


--------------------------------------------------------------------------------------------------------




--------------------------------------- Iteration      4(   3)  ---------------------------------------


    POTLOK:  cpu time    0.1942: real time    0.2102
    SETDIJ:  cpu time    0.1609: real time    0.1611
     EDDAV:  cpu time    7.5942: real time    7.7526
       DOS:  cpu time    0.0002: real time    0.0002
    --------------------------------------------
      LOOP:  cpu time    7.9494: real time    8.1240

 eigenvalue-minimisations  :   600
 total energy-change (2. order) : 0.1848734E-05  (-0.4914324E-05)
 number of electron     383.9999990 magnetization 
 augmentation part      -49.4166161 magnetization 

 Free energy of the ion-electron system (eV)
  ---------------------------------------------------
  alpha Z        PSCENC =       310.04809462
  Ewald energy   TEWEN  =    -15415.13514434
  -Hartree energ DENC   =     -4571.71660286
  -exchange      EXHF   =         0.00000000
  -V(xc)+E(xc)   XCENC  =       447.03122669
  PAW double counting   =     11244.04694514   -10653.33570578
  entropy T*S    EENTRO =        -0.00000000
  eigenvalues    EBANDS =     -1859.29408861
  atomic energy  EATOM  =     20224.25915541
  Solvation  Ediel_sol  =         0.00000000
  ---------------------------------------------------
  free energy    TOTEN  =      -274.09611973 eV

  energy without entropy =     -274.09611973  energy(sigma->0) =     -274.09611973


--------------------------------------------------------------------------------------------------------




 average (electrostatic) potential at core
  the test charge radii are     0.9406  1.4837  0.9748
  (the norm of the test charge is              1.0000)
       1 -92.6842       2 -92.6842       3 -94.2217       4 -94.2217       5 -94.0869
       6 -94.7251       7 -94.1129       8 -94.0441       9 -93.5644      10 -93.5644
      11 -93.6627      12 -93.6627      13 -94.1623      14 -94.0196      15 -94.0124
      16 -94.1554      17 -93.9862      18 -93.9862      19 -93.9810      20 -93.9810
      21 -94.7251      22 -94.0870      23 -94.0441      24 -94.1129      25 -93.9966
      26 -93.9965      27 -94.0130      28 -94.0130      29 -94.0196      30 -94.1622
      31 -94.1554      32 -94.0124      33 -93.7035      34 -93.7035      35 -94.0618
      36 -94.1283      37 -92.5434      38 -92.5434      39 -94.0691      40 -94.6557
      41 -93.9801      42 -93.9801      43 -94.1283      44 -94.0619      45 -94.0829
      46 -94.0829      47 -94.6557      48 -94.0690      49 -41.9804      50 -41.5380
      51 -41.8865      52 -41.9104      53 -41.9804      54 -41.8047      55 -41.8865
      56 -42.2108      57 -27.8320      58 -28.1215      59 -28.7411      60 -28.7795
      61 -27.8320      62 -28.1214      63 -28.9055      64 -28.3837      65 -28.6624
      66 -28.6653      67 -28.9055      68 -28.3837      69 -28.6624      70 -28.6653
      71 -28.7412      72 -28.7795      73 -28.5214      74 -28.7496      75 -27.9697
      76 -28.7496      77 -27.9697      78 -28.8444      79 -28.5214      80 -28.8445
 
 
 
 E-fermi :   0.4243     XC(G=0):  -7.8737     alpha+bet : -7.9187


 k-point     1 :       0.0000    0.0000    0.0000
  band No.  band energies     occupation 
      1     -14.6430      2.00000
      2     -14.3796      2.00000
      3     -14.1656      2.00000
      4     -14.1399      2.00000
      5     -14.0804      2.00000
      6     -14.0566      2.00000
      7     -14.0412      2.00000
      8     -13.9192      2.00000
      9     -13.8708      2.00000
     10     -13.8322      2.00000
     11     -13.8060      2.00000
     12     -13.7720      2.00000
     13     -13.7441      2.00000
     14     -13.7301      2.00000
     15     -13.7191      2.00000
     16     -13.6771      2.00000
     17     -13.6723      2.00000
     18     -13.6585      2.00000
     19     -13.6459      2.00000
     20     -13.5988      2.00000
     21     -13.5955      2.00000
     22     -13.5812      2.00000
     23     -13.5786      2.00000
     24     -13.5531      2.00000
     25     -13.5405      2.00000
     26     -13.4981      2.00000
     27     -13.4905      2.00000
     28     -13.4581      2.00000
     29     -13.4516      2.00000
     30     -13.4436      2.00000
     31     -13.4106      2.00000
     32     -13.4064      2.00000
     33     -13.4004      2.00000
     34     -13.3792      2.00000
     35     -13.3568      2.00000
     36     -13.3417      2.00000
     37     -13.3180      2.00000
     38     -13.3012      2.00000
     39     -13.2860      2.00000
     40     -13.2745      2.00000
     41     -13.1711      2.00000
     42     -13.1162      2.00000
     43     -12.9584      2.00000
     44     -12.9262      2.00000
     45     -12.2919      2.00000
     46     -12.2686      2.00000
     47     -12.1503      2.00000
     48     -12.1456      2.00000
     49      -5.5963      2.00000
     50      -5.3066      2.00000
     51      -5.2568      2.00000
     52      -5.1463      2.00000
     53      -5.1220      2.00000
     54      -5.0905      2.00000
     55      -4.9919      2.00000
     56      -4.6693      2.00000
     57      -3.8626      2.00000
     58      -3.6775      2.00000
     59      -3.6756      2.00000
     60      -3.4785      2.00000
     61      -3.4208      2.00000
     62      -3.3907      2.00000
     63      -3.3884      2.00000
     64      -3.3626      2.00000
     65      -3.2692      2.00000
     66      -3.2469      2.00000
     67      -3.2269      2.00000
     68      -3.2246      2.00000
     69      -3.1771      2.00000
     70      -3.0654      2.00000
     71      -3.0402      2.00000
     72      -3.0087      2.00000
     73      -3.0040      2.00000
     74      -2.9695      2.00000
     75      -2.9556      2.00000
     76      -2.8952      2.00000
     77      -2.8214      2.00000
     78      -2.7577      2.00000
     79      -2.7379      2.00000
     80      -2.7329      2.00000
     81      -2.6548      2.00000
     82      -2.6198      2.00000
     83      -2.6141      2.00000
     84      -2.5923      2.00000
     85      -2.5642      2.00000
     86      -2.5516      2.00000
     87      -2.5010      2.00000
     88      -2.4528      2.00000
     89      -2.4114      2.00000
     90      -2.3874      2.00000
     91      -2.3641      2.00000
     92      -2.3482      2.00000
     93      -2.3200      2.00000
     94      -2.3129      2.00000
     95      -2.3041      2.00000
     96      -2.3029      2.00000
     97      -2.2523      2.00000
     98      -2.2184      2.00000
     99      -2.2162      2.00000
    100      -2.1906      2.00000
    101      -2.1616      2.00000
    102      -2.1415      2.00000
    103      -2.1205      2.00000
    104      -2.0623      2.00000
    105      -2.0163      2.00000
    106      -2.0023      2.00000
    107      -1.9691      2.00000
    108      -1.9499      2.00000
    109      -1.9295      2.00000
    110      -1.9107      2.00000
    111      -1.9023      2.00000
    112      -1.8867      2.00000
    113      -1.8550      2.00000
    114      -1.8239      2.00000
    115      -1.8209      2.00000
    116      -1.7913      2.00000
    117      -1.7734      2.00000
    118      -1.7186      2.00000
    119      -1.7013      2.00000
    120      -1.6840      2.00000
    121      -1.6733      2.00000
    122      -1.6728      2.00000
    123      -1.6459      2.00000
    124      -1.6412      2.00000
    125      -1.6095      2.00000
    126      -1.6065      2.00000
    127      -1.5789      2.00000
    128      -1.5570      2.00000
    129      -1.5511      2.00000
    130      -1.5251      2.00000
    131      -1.5177      2.00000
    132      -1.5120      2.00000
    133      -1.4860      2.00000
    134      -1.4625      2.00000
    135      -1.4467      2.00000
    136      -1.4381      2.00000
    137      -1.4318      2.00000
    138      -1.3898      2.00000
    139      -1.3891      2.00000
    140      -1.3799      2.00000
    141      -1.3500      2.00000
    142      -1.3478      2.00000
    143      -1.3311      2.00000
    144      -1.3295      2.00000
    145      -1.3075      2.00000
    146      -1.2966      2.00000
    147      -1.2816      2.00000
    148      -1.2659      2.00000
    149      -1.2513      2.00000
    150      -1.2421      2.00000
    151      -1.2258      2.00000
    152      -1.2086      2.00000
    153      -1.1947      2.00000
    154      -1.1802      2.00000
    155      -1.1789      2.00000
    156      -1.1567      2.00000
    157      -1.1489      2.00000
    158      -1.1172      2.00000
    159      -1.0926      2.00000
    160      -1.0818      2.00000
    161      -1.0806      2.00000
    162      -1.0737      2.00000
    163      -1.0584      2.00000
    164      -1.0530      2.00000
    165      -1.0112      2.00000
    166      -0.9922      2.00000
    167      -0.9798      2.00000
    168      -0.9725      2.00000
    169      -0.9456      2.00000
    170      -0.9290      2.00000
    171      -0.9207      2.00000
    172      -0.9049      2.00000
    173      -0.8806      2.00000
    174      -0.8607      2.00000
    175      -0.8326      2.00000
    176      -0.8005      2.00000
    177      -0.7954      2.00000
    178      -0.7594      2.00000
    179      -0.7545      2.00000
    180      -0.6732      2.00000
    181      -0.6722      2.00000
    182      -0.6045      2.00000
    183      -0.5961      2.00000
    184      -0.5264      2.00000
    185      -0.3675      2.00000
    186      -0.3568      2.00000
    187      -0.3423      2.00000
    188      -0.2766      2.00000
    189      -0.2452      2.00000
    190      -0.2283      2.00000
    191      -0.1657      2.00000
    192      -0.0672      2.00000
    193       2.4846      0.00000
    194       2.8057      0.00000
    195       2.8197      0.00000
    196       2.9403      0.00000
    197       3.1388      0.00000
    198       3.1508      0.00000
    199       3.2253      0.00000
    200       3.4298      0.00000
    201       5.6724      0.00000
    202       5.8113      0.00000
    203       5.9160      0.00000
    204       5.9634      0.00000
    205       6.0648      0.00000
    206       6.0761      0.00000
    207       6.1337      0.00000
    208       6.1879      0.00000
    209       6.2662      0.00000
    210       6.3709      0.00000
    211       6.4903      0.00000
    212       6.5368      0.00000
    213       6.6334      0.00000
    214       6.6427      0.00000
    215       6.7007      0.00000
    216       6.7421      0.00000
    217       6.8271      0.00000
    218       6.8406      0.00000
    219       6.9196      0.00000
    220       6.9730      0.00000
    221       6.9944      0.00000
    222       7.0510      0.00000
    223       7.1803      0.00000
    224       7.2366      0.00000
    225       7.2737      0.00000
    226       7.3667      0.00000
    227       7.4448      0.00000
    228       7.4619      0.00000
    229       7.5421      0.00000
    230       7.5622      0.00000
    231       7.6040      0.00000
    232       7.6986      0.00000
    233       7.7856      0.00000
    234       7.8056      0.00000
    235       7.8209      0.00000
    236       7.8780      0.00000
    237       7.8832      0.00000
    238       7.9059      0.00000
    239       7.9849      0.00000
    240       8.0107      0.00000


--------------------------------------------------------------------------------------------------------


 soft charge-density along one line, spin component           1
         0         1         2         3         4         5         6         7         8         9
 total charge-density along one line
 
 pseudopotential strength for first ion, spin component:           1
 47.405  -0.016  -0.003   0.019   0.003  -0.000   0.000   0.000
 -0.016   0.019  -0.000   0.000   0.000  -0.000   0.000   0.000
 -0.003  -0.000   9.108   0.000  -0.000   0.002  -0.000   0.000
  0.019   0.000   0.000   9.105   0.000  -0.000   0.002  -0.000
  0.003   0.000  -0.000   0.000   9.109   0.000  -0.000   0.001
 -0.000  -0.000   0.002  -0.000   0.000   0.035   0.000   0.000
  0.000   0.000  -0.000   0.002  -0.000   0.000   0.035   0.000
  0.000   0.000   0.000  -0.000   0.001   0.000   0.000   0.035
 total augmentation occupancy for first ion, spin component:           1
  1.911   0.427   0.009  -0.060  -0.010   0.011  -0.067  -0.011
  0.427   0.249  -0.054   0.337   0.055   0.013  -0.100  -0.023
  0.009  -0.054   1.759  -0.001   0.002  -0.398  -0.007   0.002
 -0.060   0.337  -0.001   1.797  -0.001  -0.007  -0.330  -0.010
 -0.010   0.055   0.002  -0.001   1.751   0.002  -0.010  -0.422
  0.011   0.013  -0.398  -0.007   0.002   0.101   0.003  -0.000
 -0.067  -0.100  -0.007  -0.330  -0.010   0.003   0.078   0.006
 -0.011  -0.023   0.002  -0.010  -0.422  -0.000   0.006   0.114


------------------------ aborting loop because EDIFF is reached ----------------------------------------


 


 total charge     
 
# of ion       s       p       d       tot
------------------------------------------
    1        1.589   3.591   0.000   5.180
    2        1.589   3.591   0.000   5.180
    3        1.599   3.535   0.000   5.134
    4        1.599   3.535   0.000   5.134
    5        1.598   3.544   0.000   5.141
    6        1.602   3.527   0.000   5.130
    7        1.598   3.539   0.000   5.137
    8        1.599   3.536   0.000   5.135
    9        1.597   3.539   0.000   5.136
   10        1.597   3.539   0.000   5.136
   11        1.594   3.555   0.000   5.149
   12        1.594   3.555   0.000   5.149
   13        1.596   3.549   0.000   5.145
   14        1.598   3.544   0.000   5.143
   15        1.599   3.543   0.000   5.142
   16        1.596   3.550   0.000   5.146
   17        1.597   3.544   0.000   5.140
   18        1.597   3.544   0.000   5.140
   19        1.595   3.548   0.000   5.143
   20        1.595   3.548   0.000   5.143
   21        1.602   3.527   0.000   5.130
   22        1.598   3.544   0.000   5.141
   23        1.599   3.536   0.000   5.135
   24        1.598   3.539   0.000   5.137
   25        1.596   3.561   0.000   5.156
   26        1.596   3.561   0.000   5.156
   27        1.596   3.546   0.000   5.142
   28        1.596   3.546   0.000   5.142
   29        1.598   3.544   0.000   5.143
   30        1.596   3.549   0.000   5.145
   31        1.596   3.550   0.000   5.146
   32        1.599   3.543   0.000   5.142
   33        1.599   3.540   0.000   5.139
   34        1.599   3.540   0.000   5.139
   35        1.596   3.552   0.000   5.147
   36        1.595   3.562   0.000   5.157
   37        1.590   3.592   0.000   5.182
   38        1.590   3.592   0.000   5.182
   39        1.599   3.537   0.000   5.136
   40        1.604   3.522   0.000   5.126
   41        1.600   3.541   0.000   5.140
   42        1.600   3.541   0.000   5.140
   43        1.595   3.562   0.000   5.157
   44        1.596   3.552   0.000   5.147
   45        1.596   3.557   0.000   5.153
   46        1.596   3.557   0.000   5.153
   47        1.604   3.522   0.000   5.126
   48        1.599   3.537   0.000   5.136
   49        0.976   1.145   0.373   2.493
   50        0.966   1.106   0.360   2.431
   51        0.971   1.149   0.383   2.502
   52        0.962   1.117   0.370   2.448
   53        0.976   1.145   0.373   2.493
   54        0.970   1.135   0.375   2.479
   55        0.971   1.149   0.383   2.502
   56        0.974   1.144   0.372   2.490
   57        0.071   0.129   0.000   0.200
   58        0.071   0.133   0.000   0.204
   59        0.056   0.102   0.000   0.158
   60        0.057   0.104   0.000   0.161
   61        0.071   0.129   0.000   0.200
   62        0.071   0.133   0.000   0.204
   63        0.056   0.100   0.000   0.156
   64        0.064   0.115   0.000   0.179
   65        0.061   0.110   0.000   0.171
   66        0.061   0.111   0.000   0.172
   67        0.056   0.100   0.000   0.156
   68        0.064   0.115   0.000   0.179
   69        0.061   0.110   0.000   0.171
   70        0.061   0.111   0.000   0.172
   71        0.056   0.102   0.000   0.158
   72        0.057   0.104   0.000   0.161
   73        0.062   0.109   0.000   0.171
   74        0.060   0.107   0.000   0.167
   75        0.068   0.126   0.000   0.195
   76        0.060   0.107   0.000   0.167
   77        0.068   0.126   0.000   0.195
   78        0.060   0.107   0.000   0.167
   79        0.062   0.109   0.000   0.171
   80        0.060   0.107   0.000   0.167
--------------------------------------------------
tot         85.912 182.101   2.987 271.000
 
    CHARGE:  cpu time    0.3230: real time    0.3230
    FORLOC:  cpu time    0.0699: real time    0.0699
    FORNL :  cpu time    1.5205: real time    1.5211
    STRESS:  cpu time    7.1307: real time    7.1981
    FORCOR:  cpu time    0.2529: real time    0.2538
    FORHAR:  cpu time    0.1384: real time    0.1384
    MIXING:  cpu time    0.0045: real time    0.0045
    OFIELD:  cpu time    0.0001: real time    0.0001

  FORCE on cell =-STRESS in cart. coord.  units (eV):
  Direction    XX          YY          ZZ          XY          YZ          ZX
  --------------------------------------------------------------------------------------
  Alpha Z   310.04809   310.04809   310.04809
  Ewald   -5110.12298 -5451.27338 -4853.82866    -0.00000    -0.00000    26.00382
  Hartree  1542.70662  1335.67127  1693.34208    -0.00000     0.00000     8.91920
  E(xc)   -1403.64637 -1403.57633 -1405.02228     0.00000     0.00000     0.14628
  Local   -4333.15501 -3799.59447 -4722.40164    -0.00000     0.00000   -36.11624
  n-local  4203.83396  4200.84757  4209.56608     0.00000     0.00000     0.39787
  augment  -980.05426  -981.07414  -979.48634    -0.00000     0.00000    -0.08645
  Kinetic  5771.12400  5791.87369  5748.38367     0.00001     0.00000     0.95521
  Fock        0.00000     0.00000     0.00000     0.00000     0.00000     0.00000
  -------------------------------------------------------------------------------------
  Total       0.73406     2.92230     0.60101     0.00000     0.00000     0.21969
  in kB       0.63193     2.51573     0.51739     0.00000     0.00000     0.18912
  external pressure =        1.22 kB  Pullay stress =        0.00 kB


 VOLUME and BASIS-vectors are now :
 -----------------------------------------------------------------------------
  energy-cutoff  :      520.00
  volume of cell :     1861.11
      direct lattice vectors                 reciprocal lattice vectors
    13.459017910  0.000000000 -0.273085008     0.074898101  0.000000000  0.029495859
     0.000000000 11.456071877  0.000000000     0.000000000  0.087289955  0.000000000
    -4.791777054  0.000000000 12.167640179     0.001680979  0.000000000  0.082847197

  length of vectors
    13.461788088 11.456071877 13.077178399     0.080496777  0.087289955  0.082864248


 FORCES acting on ions
    electron-ion (+dipol)            ewald-force                    non-local-force                 convergence-correction
 -----------------------------------------------------------------------------------------------
   0.141E+02 0.743E+01 0.543E+02   -.142E+02 -.721E+01 -.557E+02   0.154E+00 -.218E+00 0.144E+01   0.257E-02 0.129E-02 -.194E-01
   -.141E+02 0.743E+01 -.543E+02   0.142E+02 -.721E+01 0.557E+02   -.154E+00 -.218E+00 -.144E+01   -.257E-02 0.129E-02 0.194E-01
   0.214E+02 -.724E+02 0.168E+01   -.225E+02 0.745E+02 -.332E+01   0.108E+01 -.213E+01 0.161E+01   -.697E-02 0.208E-02 0.172E-01
   -.214E+02 -.724E+02 -.168E+01   0.225E+02 0.745E+02 0.332E+01   -.108E+01 -.213E+01 -.161E+01   0.697E-02 0.208E-02 -.172E-01
   -.405E+02 -.419E+02 0.349E+01   0.413E+02 0.438E+02 -.266E+01   -.813E+00 -.184E+01 -.817E+00   0.306E-02 -.457E-03 -.826E-02
   -.325E+02 -.390E+02 0.277E+02   0.334E+02 0.399E+02 -.291E+02   -.986E+00 -.921E+00 0.144E+01   0.105E-01 -.186E-02 -.242E-02
   0.224E+02 0.761E+02 -.424E+01   -.236E+02 -.782E+02 0.339E+01   0.114E+01 0.211E+01 0.828E+00   -.978E-02 -.548E-02 0.128E-01
   -.250E+02 0.514E+02 0.156E+02   0.258E+02 -.537E+02 -.143E+02   -.863E+00 0.230E+01 -.123E+01   0.897E-02 0.814E-03 -.480E-02
   -.180E+02 -.447E+02 -.264E+01   0.187E+02 0.464E+02 0.353E+01   -.730E+00 -.175E+01 -.878E+00   0.132E-01 0.612E-02 -.571E-02
   0.180E+02 -.447E+02 0.264E+01   -.187E+02 0.464E+02 -.353E+01   0.730E+00 -.175E+01 0.878E+00   -.132E-01 0.612E-02 0.571E-02
   0.217E+02 0.270E+02 -.669E+01   -.222E+02 -.281E+02 0.646E+01   0.502E+00 0.109E+01 0.217E+00   -.456E-03 0.413E-02 0.106E-01
   -.217E+02 0.270E+02 0.669E+01   0.222E+02 -.281E+02 -.646E+01   -.502E+00 0.109E+01 -.217E+00   0.456E-03 0.413E-02 -.106E-01
   -.264E+02 -.403E+02 0.400E+01   0.276E+02 0.419E+02 -.354E+01   -.118E+01 -.158E+01 -.456E+00   0.369E-02 -.979E-03 0.214E-03
   0.196E+02 -.432E+02 -.146E+02   -.206E+02 0.452E+02 0.138E+02   0.989E+00 -.198E+01 0.786E+00   -.950E-03 -.225E-02 0.120E-01
   0.240E+02 0.587E+02 0.132E+01   -.250E+02 -.610E+02 -.193E+01   0.107E+01 0.228E+01 0.601E+00   0.687E-03 0.322E-02 0.666E-02
   -.158E+02 0.471E+02 -.227E+01   0.166E+02 -.486E+02 0.311E+01   -.782E+00 0.152E+01 -.826E+00   0.764E-02 -.282E-02 -.108E-01
   -.248E+02 -.489E+02 0.713E+01   0.258E+02 0.505E+02 -.625E+01   -.977E+00 -.156E+01 -.872E+00   0.288E-02 -.241E-03 -.386E-02
   0.248E+02 -.489E+02 -.713E+01   -.258E+02 0.505E+02 0.625E+01   0.977E+00 -.156E+01 0.872E+00   -.288E-02 -.241E-03 0.386E-02
   0.188E+02 0.364E+02 -.680E+01   -.195E+02 -.379E+02 0.617E+01   0.788E+00 0.144E+01 0.626E+00   -.658E-02 0.285E-02 0.506E-02
   -.188E+02 0.364E+02 0.680E+01   0.195E+02 -.379E+02 -.617E+01   -.788E+00 0.144E+01 -.626E+00   0.658E-02 0.285E-02 -.506E-02
   0.325E+02 -.390E+02 -.277E+02   -.334E+02 0.399E+02 0.291E+02   0.986E+00 -.921E+00 -.144E+01   -.105E-01 -.186E-02 0.242E-02
   0.405E+02 -.419E+02 -.349E+01   -.413E+02 0.438E+02 0.266E+01   0.813E+00 -.184E+01 0.817E+00   -.306E-02 -.457E-03 0.826E-02
   0.250E+02 0.514E+02 -.156E+02   -.258E+02 -.537E+02 0.143E+02   0.863E+00 0.230E+01 0.123E+01   -.897E-02 0.814E-03 0.480E-02
   -.224E+02 0.761E+02 0.424E+01   0.236E+02 -.782E+02 -.339E+01   -.114E+01 0.211E+01 -.828E+00   0.978E-02 -.548E-02 -.128E-01
   -.253E+02 -.372E+02 0.532E+01   0.256E+02 0.386E+02 -.479E+01   -.302E+00 -.146E+01 -.516E+00   0.574E-02 -.660E-02 -.454E-02
   0.253E+02 -.372E+02 -.532E+01   -.256E+02 0.386E+02 0.479E+01   0.302E+00 -.146E+01 0.516E+00   -.574E-02 -.660E-02 0.454E-02
   0.248E+02 0.292E+02 -.731E+01   -.256E+02 -.304E+02 0.635E+01   0.852E+00 0.119E+01 0.939E+00   -.120E-02 0.763E-04 0.939E-02
   -.248E+02 0.292E+02 0.731E+01   0.256E+02 -.304E+02 -.635E+01   -.852E+00 0.119E+01 -.939E+00   0.120E-02 0.763E-04 -.939E-02
   -.196E+02 -.432E+02 0.146E+02   0.206E+02 0.452E+02 -.138E+02   -.989E+00 -.198E+01 -.786E+00   0.950E-03 -.225E-02 -.120E-01
   0.264E+02 -.403E+02 -.400E+01   -.276E+02 0.419E+02 0.354E+01   0.118E+01 -.158E+01 0.456E+00   -.369E-02 -.979E-03 -.214E-03
   0.158E+02 0.471E+02 0.226E+01   -.166E+02 -.486E+02 -.311E+01   0.782E+00 0.152E+01 0.826E+00   -.764E-02 -.282E-02 0.108E-01
   -.240E+02 0.587E+02 -.132E+01   0.250E+02 -.610E+02 0.193E+01   -.107E+01 0.228E+01 -.601E+00   -.687E-03 0.322E-02 -.666E-02
   -.533E+02 -.119E+02 0.104E+01   0.559E+02 0.119E+02 -.149E+01   -.260E+01 -.357E-01 0.452E+00   0.539E-02 0.638E-02 -.395E-03
   0.533E+02 -.119E+02 -.104E+01   -.559E+02 0.119E+02 0.149E+01   0.260E+01 -.357E-01 -.452E+00   -.539E-02 0.638E-02 0.395E-03
   -.444E+02 0.759E+01 -.181E+02   0.459E+02 -.783E+01 0.174E+02   -.151E+01 0.232E+00 0.717E+00   0.119E-01 0.197E-02 -.294E-02
   0.386E+02 0.691E+01 0.130E+02   -.400E+02 -.662E+01 -.127E+02   0.143E+01 -.289E+00 -.324E+00   -.874E-02 -.169E-03 0.870E-03
   0.878E+01 -.300E+02 -.568E+02   -.881E+01 0.300E+02 0.584E+02   0.195E-01 -.179E-01 -.156E+01   0.674E-02 0.381E-02 0.551E-02
   -.878E+01 -.300E+02 0.568E+02   0.881E+01 0.300E+02 -.584E+02   -.195E-01 -.179E-01 0.156E+01   -.674E-02 0.381E-02 -.551E-02
   -.559E+02 0.508E+01 -.171E+02   0.586E+02 -.474E+01 0.164E+02   -.264E+01 -.335E+00 0.759E+00   0.511E-02 -.442E-02 -.317E-02
   0.158E+02 0.631E+02 -.214E+02   -.165E+02 -.647E+02 0.228E+02   0.755E+00 0.159E+01 -.137E+01   -.109E-01 -.679E-02 0.538E-02
   -.545E+02 -.463E+01 -.142E+02   0.572E+02 0.449E+01 0.139E+02   -.272E+01 0.139E+00 0.296E+00   0.623E-02 0.168E-02 -.548E-02
   0.545E+02 -.463E+01 0.142E+02   -.572E+02 0.449E+01 -.139E+02   0.272E+01 0.139E+00 -.296E+00   -.623E-02 0.168E-02 0.548E-02
   -.386E+02 0.691E+01 -.130E+02   0.400E+02 -.662E+01 0.127E+02   -.143E+01 -.289E+00 0.324E+00   0.874E-02 -.169E-03 -.870E-03
   0.444E+02 0.759E+01 0.181E+02   -.459E+02 -.783E+01 -.174E+02   0.151E+01 0.232E+00 -.717E+00   -.119E-01 0.197E-02 0.294E-02
   -.540E+02 -.818E+01 -.241E+02   0.558E+02 0.815E+01 0.237E+02   -.177E+01 0.363E-01 0.405E+00   0.655E-02 0.317E-03 -.121E-02
   0.540E+02 -.818E+01 0.241E+02   -.558E+02 0.815E+01 -.237E+02   0.177E+01 0.363E-01 -.405E+00   -.655E-02 0.317E-03 0.121E-02
   -.158E+02 0.631E+02 0.214E+02   0.165E+02 -.647E+02 -.228E+02   -.755E+00 0.159E+01 0.137E+01   0.109E-01 -.679E-02 -.538E-02
   0.559E+02 0.508E+01 0.171E+02   -.586E+02 -.474E+01 -.164E+02   0.264E+01 -.335E+00 -.759E+00   -.511E-02 -.442E-02 0.317E-02
   -.759E+01 0.946E+01 0.127E+01   0.922E+01 -.104E+02 -.118E+01   -.163E+01 0.955E+00 -.819E-01   -.116E-02 -.375E-03 0.126E-02
   -.487E-06 -.216E+01 -.943E-06   -.356E-05 0.330E+01 -.694E-05   0.000E+00 -.115E+01 0.000E+00   -.521E-09 -.515E-03 -.564E-08
   -.292E+01 0.310E+01 -.362E+01   0.259E+01 -.326E+01 0.269E+01   0.331E+00 0.162E+00 0.933E+00   0.121E-02 -.809E-03 0.976E-03
   0.640E-06 -.257E+01 0.983E-06   0.469E-05 0.296E+01 0.722E-05   0.847E-21 -.389E+00 0.000E+00   -.210E-10 0.793E-03 0.327E-08
   0.759E+01 0.946E+01 -.127E+01   -.922E+01 -.104E+02 0.118E+01   0.163E+01 0.955E+00 0.819E-01   0.116E-02 -.375E-03 -.126E-02
   -.494E-06 0.273E+01 -.896E-06   -.362E-05 -.255E+01 -.658E-05   0.000E+00 -.183E+00 0.000E+00   0.123E-08 0.216E-03 -.339E-08
   0.292E+01 0.310E+01 0.362E+01   -.259E+01 -.326E+01 -.269E+01   -.331E+00 0.162E+00 -.933E+00   -.121E-02 -.809E-03 -.976E-03
   0.198E-07 -.125E+02 0.147E-05   0.108E-06 0.139E+02 0.109E-04   0.000E+00 -.135E+01 0.000E+00   -.142E-09 -.231E-02 0.486E-09
   0.574E+00 -.874E+01 0.267E+01   -.189E+00 0.783E+01 -.335E+01   -.388E+00 0.906E+00 0.680E+00   0.311E-04 0.254E-03 -.504E-03
   0.329E+01 0.481E+01 -.403E+00   -.281E+01 -.362E+01 0.605E+00   -.487E+00 -.119E+01 -.200E+00   0.318E-03 0.132E-03 0.535E-04
   -.308E+01 -.411E+01 -.467E+01   0.294E+01 0.401E+01 0.459E+01   0.136E+00 0.990E-01 0.751E-01   0.422E-03 -.461E-03 -.989E-04
   -.784E+00 0.103E+02 -.120E+01   0.736E+00 -.966E+01 0.121E+01   0.515E-01 -.684E+00 -.419E-02   0.156E-03 -.293E-03 -.685E-04
   -.574E+00 -.874E+01 -.267E+01   0.189E+00 0.783E+01 0.335E+01   0.388E+00 0.906E+00 -.680E+00   -.311E-04 0.254E-03 0.504E-03
   -.329E+01 0.481E+01 0.403E+00   0.281E+01 -.362E+01 -.605E+00   0.487E+00 -.119E+01 0.200E+00   -.318E-03 0.132E-03 -.535E-04
   0.184E+01 -.555E+01 -.343E+01   -.150E+01 0.518E+01 0.300E+01   -.345E+00 0.373E+00 0.429E+00   0.590E-04 0.110E-05 0.150E-04
   -.689E+00 -.715E-01 -.453E-01   0.156E+00 -.734E+00 -.259E+00   0.534E+00 0.806E+00 0.309E+00   0.131E-03 0.162E-03 -.308E-03
   -.126E+01 -.814E+01 0.793E+00   0.132E+01 0.747E+01 -.714E+00   -.562E-01 0.669E+00 -.767E-01   0.138E-03 0.805E-04 0.267E-04
   0.394E+00 0.817E+01 -.676E+00   -.417E+00 -.738E+01 0.658E+00   0.237E-01 -.784E+00 0.191E-01   -.304E-04 0.838E-04 -.793E-04
   -.184E+01 -.555E+01 0.343E+01   0.150E+01 0.518E+01 -.300E+01   0.345E+00 0.373E+00 -.429E+00   -.590E-04 0.111E-05 -.150E-04
   0.689E+00 -.715E-01 0.453E-01   -.156E+00 -.734E+00 0.259E+00   -.534E+00 0.806E+00 -.309E+00   -.131E-03 0.162E-03 0.308E-03
   0.126E+01 -.814E+01 -.793E+00   -.132E+01 0.747E+01 0.714E+00   0.562E-01 0.669E+00 0.767E-01   -.138E-03 0.805E-04 -.267E-04
   -.394E+00 0.817E+01 0.676E+00   0.417E+00 -.738E+01 -.658E+00   -.237E-01 -.784E+00 -.191E-01   0.304E-04 0.838E-04 0.793E-04
   0.308E+01 -.411E+01 0.467E+01   -.294E+01 0.401E+01 -.459E+01   -.136E+00 0.990E-01 -.751E-01   -.422E-03 -.461E-03 0.989E-04
   0.784E+00 0.103E+02 0.120E+01   -.736E+00 -.966E+01 -.121E+01   -.515E-01 -.684E+00 0.419E-02   -.156E-03 -.293E-03 0.685E-04
   0.463E+01 0.451E+01 0.433E+01   -.493E+01 -.342E+01 -.447E+01   0.313E+00 -.109E+01 0.143E+00   0.218E-03 0.247E-03 -.253E-03
   -.267E+01 0.586E+00 -.495E+00   0.258E+01 -.641E+00 0.386E+00   0.815E-01 0.549E-01 0.108E+00   -.967E-04 -.145E-03 0.210E-03
   -.541E+01 -.166E+01 -.384E+00   0.440E+01 0.172E+01 0.742E+00   0.101E+01 -.567E-01 -.358E+00   0.353E-03 0.212E-03 0.159E-03
   0.267E+01 0.586E+00 0.495E+00   -.258E+01 -.641E+00 -.386E+00   -.815E-01 0.549E-01 -.108E+00   0.967E-04 -.145E-03 -.210E-03
   0.541E+01 -.166E+01 0.384E+00   -.440E+01 0.172E+01 -.742E+00   -.101E+01 -.567E-01 0.358E+00   -.353E-03 0.212E-03 -.159E-03
   0.930E+00 0.188E+01 0.330E+00   -.797E+00 -.219E+01 0.825E-02   -.132E+00 0.317E+00 -.338E+00   -.285E-05 -.100E-03 -.287E-03
   -.463E+01 0.451E+01 -.433E+01   0.493E+01 -.342E+01 0.447E+01   -.313E+00 -.109E+01 -.143E+00   -.218E-03 0.247E-03 0.253E-03
   -.930E+00 0.188E+01 -.330E+00   0.797E+00 -.219E+01 -.826E-02   0.132E+00 0.317E+00 0.338E+00   0.285E-05 -.100E-03 0.287E-03
 -----------------------------------------------------------------------------------------------
   0.274E-03 0.238E+01 -.697E-03   0.159E-12 0.790E-13 -.168E-13   0.333E-15 -.239E+01 0.111E-15   -.338E-08 0.149E-02 -.405E-08
 
 
 POSITION                                       TOTAL-FORCE (eV/Angst)
 -----------------------------------------------------------------------------------
      1.01663      1.92056      1.89537        -0.003601     -0.001865      0.007330
      7.65061      1.92056      9.99918         0.003601     -0.001865     -0.007330
      7.76828      9.34350     10.19071         0.001813      0.002869     -0.010937
      0.89896      9.34350      1.70385        -0.001813      0.002869      0.010937
      4.19909      7.45952      1.63968         0.000306      0.003851      0.007671
     -2.65531      7.54669     10.69662         0.000022      0.002097     -0.004105
     -2.33983      4.07325     10.45435         0.002542     -0.000275     -0.008321
      4.23672      3.97444      1.59973        -0.006121     -0.003293      0.004766
     -1.47981      1.72734      7.74020        -0.006538     -0.001786      0.004210
     10.14705      1.72734      4.15436         0.006538     -0.001786     -0.004210
     10.07884      9.61973      4.16392        -0.001285     -0.004701     -0.005826
     -1.41160      9.61973      7.73063         0.001285     -0.004701      0.005826
      2.05031      7.46538      7.58930         0.001102      0.002716      0.001271
     -0.04139      7.40422      4.47416        -0.001759      0.000794     -0.006181
     -0.08921      3.92885      4.63250        -0.002225     -0.003326     -0.002492
      1.88293      4.01488      7.76038        -0.002182      0.000420      0.007822
      7.67911      1.76003      1.49500         0.000829      0.001386      0.003561
      0.98814      1.76003     10.39956        -0.000829      0.001386     -0.003561
      1.04389      9.71583     10.39309         0.001351     -0.003185     -0.004463
      7.62335      9.71583      1.50147        -0.001351     -0.003185      0.004463
     11.32255      7.54669      1.19794        -0.000022      0.002097      0.004105
      4.46815      7.45952     10.25488        -0.000306      0.003851     -0.007671
      4.43052      3.97444     10.29482         0.006121     -0.003293     -0.004766
     11.00707      4.07325      1.44020        -0.002542     -0.000275      0.008321
      5.08811      1.80615      7.57654        -0.003199      0.005604      0.003355
      3.57914      1.80615      4.31802         0.003199      0.005604     -0.003355
      3.37717      9.75402      4.20114         0.000045      0.000657     -0.005997
      5.29007      9.75402      7.69342        -0.000045      0.000657      0.005997
      8.70863      7.40422      7.42039         0.001759      0.000794      0.006181
      6.61693      7.46538      4.30525        -0.001102      0.002716     -0.001271
      6.78431      4.01488      4.13417         0.002182      0.000420     -0.007822
      8.75645      3.92885      7.26206         0.002225     -0.003326      0.002492
     -0.33513     11.33575      4.64503         0.004354     -0.005790      0.000440
      9.00237     11.33575      7.24952        -0.004354     -0.005790     -0.000440
      2.98562      5.62689      4.50812         0.000625     -0.001868     -0.000324
     -1.12475      5.88526      7.61570        -0.002600      0.001238      0.001580
     -2.53595     11.33174     10.68544        -0.001895     -0.001300      0.003653
     11.20319     11.33174      1.20912         0.001895     -0.001300     -0.003653
      0.60297      5.97057     10.65835         0.001361      0.006531      0.001083
      1.12110      5.82571      1.32564         0.001272     -0.005285      0.003291
      6.45120     11.37328      4.58842         0.006042     -0.001078      0.000285
      2.21604     11.37328      7.30614        -0.006042     -0.001078     -0.000285
      9.79199      5.88526      4.27885         0.002600      0.001238     -0.001580
      5.68162      5.62689      7.38644        -0.000625     -0.001868      0.000324
      4.01378      0.03591     10.53331         0.004523      0.001512     -0.001650
      4.65346      0.03591      1.36124        -0.004523      0.001512      0.001650
      7.54614      5.82571     10.56891        -0.001272     -0.005285     -0.003291
      8.06427      5.97057      1.23621        -0.001361      0.006531     -0.001083
      3.41593      5.68568     -0.01115        -0.005729      0.002276      0.003526
     -2.39589      0.01257      6.08382        -0.000000     -0.001628      0.000000
      0.95294      5.71055      6.06984         0.004213     -0.002755      0.003795
      6.72951      0.03917     -0.13654        -0.000000      0.003591      0.000000
      5.25131      5.68568     11.90570         0.005729      0.002276     -0.003526
      4.33362     11.39820      5.94728        -0.000000      0.000606      0.000000
      7.71430      5.71055      5.82472        -0.004213     -0.002755     -0.003795
      0.00000      7.78618      0.00000        -0.000000     -0.004843      0.000000
     12.37063      1.40313      2.47168        -0.003257     -0.001630      0.003763
     -3.43071      9.87543      9.15220        -0.001069     -0.002930      0.001600
      2.10950      7.61640      3.14385         0.000943      0.000431      0.001793
     -0.20647      4.11930      9.14857         0.003072      0.004886      0.003040
     -3.70339      1.40313      9.42288         0.003257     -0.001630     -0.003763
     12.09795      9.87543      2.74236         0.001069     -0.002930     -0.001600
     -0.00952      7.75744      8.87261         0.000638      0.002504     -0.003476
      1.99390      3.48377      3.27670         0.001591      0.000987      0.004188
      5.71752      1.64864      3.01884         0.002784      0.002060      0.001822
      3.11614      9.80327      8.97694         0.000557      0.000787      0.001137
      8.67676      7.75744      3.02194        -0.000638      0.002504      0.003476
      6.67334      3.48377      8.61785        -0.001591      0.000987     -0.004188
      2.94972      1.64864      8.87571        -0.002784      0.002060     -0.001822
      5.55110      9.80327      2.91761        -0.000557      0.000787     -0.001137
      6.55774      7.61640      8.75070        -0.000943      0.000431     -0.001793
      8.87372      4.11930      2.74598        -0.003072      0.004886     -0.003040
      2.44703      0.29743      2.63018         0.003355      0.000049      0.001172
      5.20889      5.70003      3.12599        -0.001182      0.000241     -0.000716
     -0.66651      0.01580      9.35126        -0.001511     -0.000462     -0.000164
      3.45835      5.70003      8.76856         0.001182      0.000241      0.000716
      9.33375      0.01580      2.54330         0.001511     -0.000462      0.000164
     12.04610      5.57784      3.16442         0.000420     -0.001231      0.000143
      6.22021      0.29743      9.26438        -0.003355      0.000049     -0.001172
     -3.37886      5.57784      8.73014        -0.000420     -0.001231     -0.000143
 -----------------------------------------------------------------------------------
    total drift:                                0.000274     -0.002700     -0.000697


--------------------------------------------------------------------------------------------------------



  FREE ENERGIE OF THE ION-ELECTRON SYSTEM (eV)
  ---------------------------------------------------
  free  energy   TOTEN  =      -274.09611973 eV

  energy  without entropy=     -274.09611973  energy(sigma->0) =     -274.09611973
 
 d Force = 0.2821305E-03[ 0.210E-03, 0.354E-03]  d Energy = 0.2904452E-03-0.831E-05
 d Force =-0.9068666E+00[-0.908E+00,-0.906E+00]  d Ewald  =-0.9068666E+00 0.453E-07


--------------------------------------------------------------------------------------------------------


    POTLOK:  cpu time    0.3573: real time    0.3581


--------------------------------------------------------------------------------------------------------


 Conjugate gradient step on ions:
 trial-energy change:   -0.000290  1 .order   -0.000282   -0.000354   -0.000210
  (g-gl).g = 0.253E-03      g.g   = 0.253E-03  gl.gl    = 0.567E-03
 g(Force)  = 0.253E-03   g(Stress)= 0.000E+00 ortho     = 0.554E-07
 gamma     =   0.44666
 trial     =   1.39671
 opt step  =   3.44790  (harmonic =   3.44790) maximal distance =0.00291287
 next E    =  -274.096266   (d E  =  -0.00044)


--------------------------------------------------------------------------------------------------------


    WAVPRE:  cpu time    0.1090: real time    0.1114
    FEWALD:  cpu time    0.0119: real time    0.0130
    ORTHCH:  cpu time    0.9495: real time    0.9524
     LOOP+:  cpu time   32.5287: real time   32.8077


--------------------------------------- Iteration      5(   1)  ---------------------------------------


    POTLOK:  cpu time    0.2056: real time    0.2094
    SETDIJ:  cpu time    0.1701: real time    0.1703
     EDDAV:  cpu time    6.1192: real time    6.1231
       DOS:  cpu time    0.0002: real time    0.0002
    CHARGE:  cpu time    0.2245: real time    0.2245
    MIXING:  cpu time    0.0036: real time    0.0036
    --------------------------------------------
      LOOP:  cpu time    6.7232: real time    6.7312

 eigenvalue-minimisations  :   560
 total energy-change (2. order) : 0.2899895E-03  (-0.1115606E-01)
 number of electron     383.9999991 magnetization 
 augmentation part      -49.4167577 magnetization 

 Broyden mixing:
  rms(total) = 0.62536E-02    rms(broyden)= 0.62528E-02
  rms(prec ) = 0.72789E-02
  weight for this iteration     100.00

 Free energy of the ion-electron system (eV)
  ---------------------------------------------------
  alpha Z        PSCENC =       310.04809462
  Ewald energy   TEWEN  =    -15413.79931959
  -Hartree energ DENC   =     -4572.91802132
  -exchange      EXHF   =         0.00000000
  -V(xc)+E(xc)   XCENC  =       447.04777574
  PAW double counting   =     11244.12308461   -10653.41291647
  entropy T*S    EENTRO =        -0.00000000
  eigenvalues    EBANDS =     -1859.44368458
  atomic energy  EATOM  =     20224.25915541
  Solvation  Ediel_sol  =         0.00000000
  ---------------------------------------------------
  free energy    TOTEN  =      -274.09583159 eV

  energy without entropy =     -274.09583159  energy(sigma->0) =     -274.09583159


--------------------------------------------------------------------------------------------------------




--------------------------------------- Iteration      5(   2)  ---------------------------------------


    POTLOK:  cpu time    0.1344: real time    0.1348
    SETDIJ:  cpu time    0.1573: real time    0.1573
     EDDAV:  cpu time    5.8206: real time    5.8257
       DOS:  cpu time    0.0002: real time    0.0002
    CHARGE:  cpu time    0.2230: real time    0.2230
    MIXING:  cpu time    0.0047: real time    0.0046
    --------------------------------------------
      LOOP:  cpu time    6.3400: real time    6.3455

 eigenvalue-minimisations  :   560
 total energy-change (2. order) :-0.4611328E-03  (-0.5111590E-03)
 number of electron     383.9999991 magnetization 
 augmentation part      -49.4165512 magnetization 

 Broyden mixing:
  rms(total) = 0.24188E-02    rms(broyden)= 0.24161E-02
  rms(prec ) = 0.32818E-02
  weight for this iteration     100.00

 eigenvalues of (default mixing * dielectric matrix)
  average eigenvalue GAMMA=   0.8900
  0.8900

 Free energy of the ion-electron system (eV)
  ---------------------------------------------------
  alpha Z        PSCENC =       310.04809462
  Ewald energy   TEWEN  =    -15413.79931959
  -Hartree energ DENC   =     -4572.89773559
  -exchange      EXHF   =         0.00000000
  -V(xc)+E(xc)   XCENC  =       447.04632648
  PAW double counting   =     11244.17974175   -10653.47013265
  entropy T*S    EENTRO =        -0.00000000
  eigenvalues    EBANDS =     -1859.46242315
  atomic energy  EATOM  =     20224.25915541
  Solvation  Ediel_sol  =         0.00000000
  ---------------------------------------------------
  free energy    TOTEN  =      -274.09629272 eV

  energy without entropy =     -274.09629272  energy(sigma->0) =     -274.09629272


--------------------------------------------------------------------------------------------------------




--------------------------------------- Iteration      5(   3)  ---------------------------------------


    POTLOK:  cpu time    0.1308: real time    0.1353
    SETDIJ:  cpu time    0.1572: real time    0.1572
     EDDAV:  cpu time    6.1476: real time    6.1530
       DOS:  cpu time    0.0002: real time    0.0002
    CHARGE:  cpu time    0.2234: real time    0.2237
    MIXING:  cpu time    0.0043: real time    0.0043
    --------------------------------------------
      LOOP:  cpu time    6.6635: real time    6.6737

 eigenvalue-minimisations  :   600
 total energy-change (2. order) : 0.8101415E-05  (-0.1039253E-04)
 number of electron     383.9999991 magnetization 
 augmentation part      -49.4166014 magnetization 

 Broyden mixing:
  rms(total) = 0.20345E-02    rms(broyden)= 0.20345E-02
  rms(prec ) = 0.26974E-02
  weight for this iteration     100.00

 eigenvalues of (default mixing * dielectric matrix)
  average eigenvalue GAMMA=   1.3961
  1.1445  1.6478

 Free energy of the ion-electron system (eV)
  ---------------------------------------------------
  alpha Z        PSCENC =       310.04809462
  Ewald energy   TEWEN  =    -15413.79931959
  -Hartree energ DENC   =     -4572.89597975
  -exchange      EXHF   =         0.00000000
  -V(xc)+E(xc)   XCENC  =       447.04534878
  PAW double counting   =     11244.22187592   -10653.51286394
  entropy T*S    EENTRO =        -0.00000000
  eigenvalues    EBANDS =     -1859.46259606
  atomic energy  EATOM  =     20224.25915541
  Solvation  Ediel_sol  =         0.00000000
  ---------------------------------------------------
  free energy    TOTEN  =      -274.09628462 eV

  energy without entropy =     -274.09628462  energy(sigma->0) =     -274.09628462


--------------------------------------------------------------------------------------------------------




--------------------------------------- Iteration      5(   4)  ---------------------------------------


    POTLOK:  cpu time    0.1304: real time    0.1353
    SETDIJ:  cpu time    0.1573: real time    0.1573
     EDDAV:  cpu time    5.4869: real time    5.4905
       DOS:  cpu time    0.0001: real time    0.0001
    CHARGE:  cpu time    0.2246: real time    0.2247
    MIXING:  cpu time    0.0043: real time    0.0043
    --------------------------------------------
      LOOP:  cpu time    6.0037: real time    6.0123

 eigenvalue-minimisations  :   520
 total energy-change (2. order) : 0.1577822E-04  (-0.3988610E-05)
 number of electron     383.9999991 magnetization 
 augmentation part      -49.4165916 magnetization 

 Broyden mixing:
  rms(total) = 0.96952E-03    rms(broyden)= 0.96951E-03
  rms(prec ) = 0.11933E-02
  weight for this iteration     100.00

 eigenvalues of (default mixing * dielectric matrix)
  average eigenvalue GAMMA=   1.7538
  3.2608  1.0004  1.0004

 Free energy of the ion-electron system (eV)
  ---------------------------------------------------
  alpha Z        PSCENC =       310.04809462
  Ewald energy   TEWEN  =    -15413.79931959
  -Hartree energ DENC   =     -4572.90229840
  -exchange      EXHF   =         0.00000000
  -V(xc)+E(xc)   XCENC  =       447.04412312
  PAW double counting   =     11244.31431681   -10653.60654996
  entropy T*S    EENTRO =        -0.00000000
  eigenvalues    EBANDS =     -1859.45379086
  atomic energy  EATOM  =     20224.25915541
  Solvation  Ediel_sol  =         0.00000000
  ---------------------------------------------------
  free energy    TOTEN  =      -274.09626885 eV

  energy without entropy =     -274.09626885  energy(sigma->0) =     -274.09626885


--------------------------------------------------------------------------------------------------------




--------------------------------------- Iteration      5(   5)  ---------------------------------------


    POTLOK:  cpu time    0.1304: real time    0.1348
    SETDIJ:  cpu time    0.1570: real time    0.1570
     EDDAV:  cpu time    4.8341: real time    4.8387
       DOS:  cpu time    0.0002: real time    0.0002
    --------------------------------------------
      LOOP:  cpu time    5.1217: real time    5.1306

 eigenvalue-minimisations  :   440
 total energy-change (2. order) :-0.1173525E-05  (-0.2279006E-05)
 number of electron     383.9999991 magnetization 
 augmentation part      -49.4165916 magnetization 

 Free energy of the ion-electron system (eV)
  ---------------------------------------------------
  alpha Z        PSCENC =       310.04809462
  Ewald energy   TEWEN  =    -15413.79931959
  -Hartree energ DENC   =     -4572.90308150
  -exchange      EXHF   =         0.00000000
  -V(xc)+E(xc)   XCENC  =       447.04335494
  PAW double counting   =     11244.40166705   -10653.69506410
  entropy T*S    EENTRO =        -0.00000000
  eigenvalues    EBANDS =     -1859.45107684
  atomic energy  EATOM  =     20224.25915541
  Solvation  Ediel_sol  =         0.00000000
  ---------------------------------------------------
  free energy    TOTEN  =      -274.09627002 eV

  energy without entropy =     -274.09627002  energy(sigma->0) =     -274.09627002


--------------------------------------------------------------------------------------------------------




 average (electrostatic) potential at core
  the test charge radii are     0.9406  1.4837  0.9748
  (the norm of the test charge is              1.0000)
       1 -92.6858       2 -92.6859       3 -94.2166       4 -94.2166       5 -94.0887
       6 -94.7273       7 -94.1135       8 -94.0456       9 -93.5642      10 -93.5642
      11 -93.6614      12 -93.6615      13 -94.1638      14 -94.0147      15 -94.0092
      16 -94.1593      17 -93.9872      18 -93.9872      19 -93.9797      20 -93.9796
      21 -94.7272      22 -94.0887      23 -94.0456      24 -94.1134      25 -93.9967
      26 -93.9967      27 -94.0121      28 -94.0121      29 -94.0147      30 -94.1638
      31 -94.1593      32 -94.0092      33 -93.7026      34 -93.7026      35 -94.0647
      36 -94.1283      37 -92.5424      38 -92.5424      39 -94.0657      40 -94.6652
      41 -93.9823      42 -93.9823      43 -94.1283      44 -94.0647      45 -94.0839
      46 -94.0838      47 -94.6652      48 -94.0656      49 -41.9812      50 -41.5367
      51 -41.8861      52 -41.9098      53 -41.9812      54 -41.8049      55 -41.8861
      56 -42.2114      57 -27.8291      58 -28.1166      59 -28.7389      60 -28.7763
      61 -27.8291      62 -28.1165      63 -28.9033      64 -28.3820      65 -28.6628
      66 -28.6639      67 -28.9033      68 -28.3820      69 -28.6628      70 -28.6639
      71 -28.7389      72 -28.7763      73 -28.5210      74 -28.7525      75 -27.9694
      76 -28.7525      77 -27.9694      78 -28.8430      79 -28.5210      80 -28.8430
 
 
 
 E-fermi :   0.4205     XC(G=0):  -7.8734     alpha+bet : -7.9187


 k-point     1 :       0.0000    0.0000    0.0000
  band No.  band energies     occupation 
      1     -14.6495      2.00000
      2     -14.3836      2.00000
      3     -14.1719      2.00000
      4     -14.1412      2.00000
      5     -14.0858      2.00000
      6     -14.0584      2.00000
      7     -14.0417      2.00000
      8     -13.9189      2.00000
      9     -13.8691      2.00000
     10     -13.8338      2.00000
     11     -13.8054      2.00000
     12     -13.7713      2.00000
     13     -13.7451      2.00000
     14     -13.7294      2.00000
     15     -13.7196      2.00000
     16     -13.6774      2.00000
     17     -13.6734      2.00000
     18     -13.6569      2.00000
     19     -13.6464      2.00000
     20     -13.5997      2.00000
     21     -13.5963      2.00000
     22     -13.5815      2.00000
     23     -13.5782      2.00000
     24     -13.5538      2.00000
     25     -13.5404      2.00000
     26     -13.4973      2.00000
     27     -13.4905      2.00000
     28     -13.4567      2.00000
     29     -13.4507      2.00000
     30     -13.4432      2.00000
     31     -13.4104      2.00000
     32     -13.4062      2.00000
     33     -13.4002      2.00000
     34     -13.3795      2.00000
     35     -13.3551      2.00000
     36     -13.3408      2.00000
     37     -13.3182      2.00000
     38     -13.3010      2.00000
     39     -13.2856      2.00000
     40     -13.2754      2.00000
     41     -13.1702      2.00000
     42     -13.1155      2.00000
     43     -12.9577      2.00000
     44     -12.9258      2.00000
     45     -12.2935      2.00000
     46     -12.2705      2.00000
     47     -12.1496      2.00000
     48     -12.1450      2.00000
     49      -5.6001      2.00000
     50      -5.3074      2.00000
     51      -5.2587      2.00000
     52      -5.1473      2.00000
     53      -5.1221      2.00000
     54      -5.0910      2.00000
     55      -4.9930      2.00000
     56      -4.6687      2.00000
     57      -3.8658      2.00000
     58      -3.6805      2.00000
     59      -3.6795      2.00000
     60      -3.4794      2.00000
     61      -3.4218      2.00000
     62      -3.3923      2.00000
     63      -3.3897      2.00000
     64      -3.3628      2.00000
     65      -3.2702      2.00000
     66      -3.2471      2.00000
     67      -3.2281      2.00000
     68      -3.2257      2.00000
     69      -3.1776      2.00000
     70      -3.0648      2.00000
     71      -3.0398      2.00000
     72      -3.0104      2.00000
     73      -3.0040      2.00000
     74      -2.9701      2.00000
     75      -2.9569      2.00000
     76      -2.8988      2.00000
     77      -2.8221      2.00000
     78      -2.7585      2.00000
     79      -2.7378      2.00000
     80      -2.7327      2.00000
     81      -2.6553      2.00000
     82      -2.6200      2.00000
     83      -2.6148      2.00000
     84      -2.5927      2.00000
     85      -2.5647      2.00000
     86      -2.5527      2.00000
     87      -2.5017      2.00000
     88      -2.4535      2.00000
     89      -2.4115      2.00000
     90      -2.3880      2.00000
     91      -2.3639      2.00000
     92      -2.3488      2.00000
     93      -2.3218      2.00000
     94      -2.3130      2.00000
     95      -2.3051      2.00000
     96      -2.3041      2.00000
     97      -2.2527      2.00000
     98      -2.2193      2.00000
     99      -2.2164      2.00000
    100      -2.1914      2.00000
    101      -2.1619      2.00000
    102      -2.1418      2.00000
    103      -2.1210      2.00000
    104      -2.0635      2.00000
    105      -2.0166      2.00000
    106      -2.0016      2.00000
    107      -1.9696      2.00000
    108      -1.9504      2.00000
    109      -1.9293      2.00000
    110      -1.9110      2.00000
    111      -1.9031      2.00000
    112      -1.8867      2.00000
    113      -1.8552      2.00000
    114      -1.8239      2.00000
    115      -1.8212      2.00000
    116      -1.7907      2.00000
    117      -1.7742      2.00000
    118      -1.7196      2.00000
    119      -1.7015      2.00000
    120      -1.6839      2.00000
    121      -1.6740      2.00000
    122      -1.6739      2.00000
    123      -1.6459      2.00000
    124      -1.6416      2.00000
    125      -1.6102      2.00000
    126      -1.6062      2.00000
    127      -1.5791      2.00000
    128      -1.5579      2.00000
    129      -1.5509      2.00000
    130      -1.5264      2.00000
    131      -1.5181      2.00000
    132      -1.5122      2.00000
    133      -1.4865      2.00000
    134      -1.4624      2.00000
    135      -1.4474      2.00000
    136      -1.4388      2.00000
    137      -1.4318      2.00000
    138      -1.3896      2.00000
    139      -1.3894      2.00000
    140      -1.3803      2.00000
    141      -1.3494      2.00000
    142      -1.3484      2.00000
    143      -1.3314      2.00000
    144      -1.3296      2.00000
    145      -1.3075      2.00000
    146      -1.2963      2.00000
    147      -1.2832      2.00000
    148      -1.2660      2.00000
    149      -1.2513      2.00000
    150      -1.2412      2.00000
    151      -1.2258      2.00000
    152      -1.2092      2.00000
    153      -1.1946      2.00000
    154      -1.1804      2.00000
    155      -1.1789      2.00000
    156      -1.1564      2.00000
    157      -1.1486      2.00000
    158      -1.1166      2.00000
    159      -1.0926      2.00000
    160      -1.0819      2.00000
    161      -1.0796      2.00000
    162      -1.0739      2.00000
    163      -1.0588      2.00000
    164      -1.0535      2.00000
    165      -1.0120      2.00000
    166      -0.9917      2.00000
    167      -0.9804      2.00000
    168      -0.9721      2.00000
    169      -0.9457      2.00000
    170      -0.9300      2.00000
    171      -0.9207      2.00000
    172      -0.9049      2.00000
    173      -0.8804      2.00000
    174      -0.8592      2.00000
    175      -0.8321      2.00000
    176      -0.8002      2.00000
    177      -0.7950      2.00000
    178      -0.7592      2.00000
    179      -0.7530      2.00000
    180      -0.6734      2.00000
    181      -0.6724      2.00000
    182      -0.6050      2.00000
    183      -0.5966      2.00000
    184      -0.5266      2.00000
    185      -0.3680      2.00000
    186      -0.3562      2.00000
    187      -0.3419      2.00000
    188      -0.2758      2.00000
    189      -0.2452      2.00000
    190      -0.2275      2.00000
    191      -0.1653      2.00000
    192      -0.0673      2.00000
    193       2.4848      0.00000
    194       2.8056      0.00000
    195       2.8199      0.00000
    196       2.9409      0.00000
    197       3.1392      0.00000
    198       3.1508      0.00000
    199       3.2257      0.00000
    200       3.4312      0.00000
    201       5.6737      0.00000
    202       5.8114      0.00000
    203       5.9153      0.00000
    204       5.9634      0.00000
    205       6.0649      0.00000
    206       6.0762      0.00000
    207       6.1342      0.00000
    208       6.1880      0.00000
    209       6.2658      0.00000
    210       6.3708      0.00000
    211       6.4911      0.00000
    212       6.5373      0.00000
    213       6.6347      0.00000
    214       6.6422      0.00000
    215       6.7000      0.00000
    216       6.7431      0.00000
    217       6.8264      0.00000
    218       6.8397      0.00000
    219       6.9214      0.00000
    220       6.9737      0.00000
    221       6.9931      0.00000
    222       7.0518      0.00000
    223       7.1803      0.00000
    224       7.2361      0.00000
    225       7.2733      0.00000
    226       7.3665      0.00000
    227       7.4448      0.00000
    228       7.4612      0.00000
    229       7.5423      0.00000
    230       7.5618      0.00000
    231       7.6037      0.00000
    232       7.6976      0.00000
    233       7.7856      0.00000
    234       7.8055      0.00000
    235       7.8207      0.00000
    236       7.8785      0.00000
    237       7.8841      0.00000
    238       7.9052      0.00000
    239       7.9845      0.00000
    240       8.0083      0.00000


--------------------------------------------------------------------------------------------------------


 soft charge-density along one line, spin component           1
         0         1         2         3         4         5         6         7         8         9
 total charge-density along one line
 
 pseudopotential strength for first ion, spin component:           1
 47.405  -0.016  -0.003   0.019   0.003  -0.000   0.000   0.000
 -0.016   0.019  -0.000   0.000   0.000  -0.000   0.000   0.000
 -0.003  -0.000   9.109   0.000  -0.000   0.002  -0.000   0.000
  0.019   0.000   0.000   9.105   0.000  -0.000   0.002  -0.000
  0.003   0.000  -0.000   0.000   9.110   0.000  -0.000   0.001
 -0.000  -0.000   0.002  -0.000   0.000   0.035   0.000   0.000
  0.000   0.000  -0.000   0.002  -0.000   0.000   0.035   0.000
  0.000   0.000   0.000  -0.000   0.001   0.000   0.000   0.035
 total augmentation occupancy for first ion, spin component:           1
  1.911   0.427   0.009  -0.060  -0.010   0.011  -0.066  -0.012
  0.427   0.249  -0.054   0.336   0.056   0.013  -0.100  -0.023
  0.009  -0.054   1.759  -0.001   0.002  -0.398  -0.007   0.002
 -0.060   0.336  -0.001   1.797  -0.001  -0.007  -0.330  -0.010
 -0.010   0.056   0.002  -0.001   1.751   0.002  -0.010  -0.422
  0.011   0.013  -0.398  -0.007   0.002   0.101   0.003  -0.000
 -0.066  -0.100  -0.007  -0.330  -0.010   0.003   0.078   0.006
 -0.012  -0.023   0.002  -0.010  -0.422  -0.000   0.006   0.114


------------------------ aborting loop because EDIFF is reached ----------------------------------------


 


 total charge     
 
# of ion       s       p       d       tot
------------------------------------------
    1        1.589   3.591   0.000   5.180
    2        1.589   3.591   0.000   5.180
    3        1.599   3.535   0.000   5.133
    4        1.599   3.535   0.000   5.133
    5        1.598   3.544   0.000   5.141
    6        1.602   3.527   0.000   5.130
    7        1.598   3.539   0.000   5.137
    8        1.599   3.536   0.000   5.135
    9        1.597   3.539   0.000   5.136
   10        1.597   3.539   0.000   5.136
   11        1.594   3.555   0.000   5.149
   12        1.594   3.555   0.000   5.149
   13        1.597   3.549   0.000   5.145
   14        1.598   3.544   0.000   5.143
   15        1.599   3.543   0.000   5.142
   16        1.596   3.550   0.000   5.146
   17        1.597   3.544   0.000   5.141
   18        1.597   3.544   0.000   5.141
   19        1.595   3.548   0.000   5.143
   20        1.595   3.548   0.000   5.143
   21        1.602   3.527   0.000   5.130
   22        1.598   3.544   0.000   5.141
   23        1.599   3.536   0.000   5.135
   24        1.598   3.539   0.000   5.137
   25        1.596   3.561   0.000   5.156
   26        1.596   3.561   0.000   5.156
   27        1.596   3.546   0.000   5.142
   28        1.596   3.546   0.000   5.142
   29        1.598   3.544   0.000   5.143
   30        1.597   3.549   0.000   5.145
   31        1.596   3.550   0.000   5.146
   32        1.599   3.543   0.000   5.142
   33        1.599   3.540   0.000   5.139
   34        1.599   3.540   0.000   5.139
   35        1.596   3.552   0.000   5.148
   36        1.595   3.562   0.000   5.157
   37        1.590   3.592   0.000   5.182
   38        1.590   3.592   0.000   5.182
   39        1.599   3.537   0.000   5.136
   40        1.604   3.523   0.000   5.127
   41        1.600   3.541   0.000   5.140
   42        1.600   3.541   0.000   5.140
   43        1.595   3.562   0.000   5.157
   44        1.596   3.552   0.000   5.148
   45        1.596   3.557   0.000   5.153
   46        1.596   3.557   0.000   5.153
   47        1.604   3.523   0.000   5.127
   48        1.599   3.537   0.000   5.136
   49        0.976   1.145   0.373   2.493
   50        0.966   1.106   0.360   2.432
   51        0.971   1.149   0.383   2.502
   52        0.962   1.117   0.370   2.449
   53        0.976   1.145   0.373   2.493
   54        0.970   1.135   0.375   2.479
   55        0.971   1.149   0.383   2.502
   56        0.974   1.144   0.372   2.490
   57        0.071   0.129   0.000   0.200
   58        0.071   0.133   0.000   0.204
   59        0.056   0.102   0.000   0.158
   60        0.057   0.104   0.000   0.161
   61        0.071   0.129   0.000   0.200
   62        0.071   0.133   0.000   0.204
   63        0.056   0.100   0.000   0.156
   64        0.064   0.115   0.000   0.179
   65        0.061   0.110   0.000   0.171
   66        0.061   0.112   0.000   0.173
   67        0.056   0.100   0.000   0.156
   68        0.064   0.115   0.000   0.179
   69        0.061   0.110   0.000   0.171
   70        0.061   0.112   0.000   0.173
   71        0.056   0.102   0.000   0.158
   72        0.057   0.104   0.000   0.161
   73        0.062   0.109   0.000   0.172
   74        0.060   0.107   0.000   0.167
   75        0.068   0.126   0.000   0.195
   76        0.060   0.107   0.000   0.167
   77        0.068   0.126   0.000   0.195
   78        0.060   0.107   0.000   0.168
   79        0.062   0.109   0.000   0.172
   80        0.060   0.107   0.000   0.168
--------------------------------------------------
tot         85.913 182.107   2.987 271.007
 
    CHARGE:  cpu time    0.2219: real time    0.2219
    FORLOC:  cpu time    0.0570: real time    0.0570
    FORNL :  cpu time    1.4158: real time    1.4163
    STRESS:  cpu time    7.0457: real time    7.0522
    FORCOR:  cpu time    0.1678: real time    0.1678
    FORHAR:  cpu time    0.0828: real time    0.0828
    MIXING:  cpu time    0.0039: real time    0.0039
    OFIELD:  cpu time    0.0000: real time    0.0000

  FORCE on cell =-STRESS in cart. coord.  units (eV):
  Direction    XX          YY          ZZ          XY          YZ          ZX
  --------------------------------------------------------------------------------------
  Alpha Z   310.04809   310.04809   310.04809
  Ewald   -5108.91429 -5451.08429 -4853.89055    -0.00000    -0.00000    25.12462
  Hartree  1543.32431  1336.17814  1693.39351    -0.00000     0.00000     8.73297
  E(xc)   -1403.67201 -1403.58475 -1405.03995     0.00000     0.00000     0.15901
  Local   -4334.95859 -3800.40673 -4722.39519    -0.00000     0.00000   -35.16545
  n-local  4203.97013  4200.82519  4209.60444    -0.00000     0.00000     0.28541
  augment  -980.06181  -981.07331  -979.48309    -0.00000    -0.00000    -0.08238
  Kinetic  5771.16885  5792.07366  5748.40189     0.00000    -0.00000     1.09671
  Fock        0.00000     0.00000     0.00000     0.00000     0.00000     0.00000
  -------------------------------------------------------------------------------------
  Total       0.90470     2.97601     0.63916     0.00000     0.00000     0.15089
  in kB       0.77883     2.56197     0.55024     0.00000     0.00000     0.12990
  external pressure =        1.30 kB  Pullay stress =        0.00 kB


 VOLUME and BASIS-vectors are now :
 -----------------------------------------------------------------------------
  energy-cutoff  :      520.00
  volume of cell :     1861.11
      direct lattice vectors                 reciprocal lattice vectors
    13.459017910  0.000000000 -0.273085008     0.074898101  0.000000000  0.029495859
     0.000000000 11.456071877  0.000000000     0.000000000  0.087289955  0.000000000
    -4.791777054  0.000000000 12.167640179     0.001680979  0.000000000  0.082847197

  length of vectors
    13.461788088 11.456071877 13.077178399     0.080496777  0.087289955  0.082864248


 FORCES acting on ions
    electron-ion (+dipol)            ewald-force                    non-local-force                 convergence-correction
 -----------------------------------------------------------------------------------------------
   0.141E+02 0.743E+01 0.544E+02   -.142E+02 -.721E+01 -.558E+02   0.152E+00 -.217E+00 0.145E+01   -.780E-03 -.875E-03 0.791E-02
   -.141E+02 0.743E+01 -.544E+02   0.142E+02 -.721E+01 0.558E+02   -.152E+00 -.217E+00 -.145E+01   0.780E-03 -.875E-03 -.791E-02
   0.214E+02 -.725E+02 0.154E+01   -.225E+02 0.746E+02 -.314E+01   0.108E+01 -.213E+01 0.161E+01   0.252E-02 -.137E-02 -.585E-02
   -.214E+02 -.725E+02 -.154E+01   0.225E+02 0.746E+02 0.314E+01   -.108E+01 -.213E+01 -.161E+01   -.252E-02 -.137E-02 0.585E-02
   -.406E+02 -.419E+02 0.353E+01   0.414E+02 0.438E+02 -.271E+01   -.815E+00 -.184E+01 -.811E+00   -.117E-02 0.678E-03 0.171E-02
   -.326E+02 -.390E+02 0.277E+02   0.336E+02 0.399E+02 -.292E+02   -.993E+00 -.922E+00 0.145E+01   -.280E-02 0.124E-02 -.639E-03
   0.224E+02 0.762E+02 -.430E+01   -.236E+02 -.783E+02 0.347E+01   0.114E+01 0.211E+01 0.827E+00   0.321E-02 0.169E-02 -.410E-02
   -.250E+02 0.515E+02 0.157E+02   0.259E+02 -.538E+02 -.144E+02   -.869E+00 0.230E+01 -.123E+01   -.180E-02 0.948E-04 0.148E-02
   -.180E+02 -.447E+02 -.262E+01   0.187E+02 0.465E+02 0.350E+01   -.733E+00 -.176E+01 -.875E+00   -.467E-02 -.160E-02 0.145E-02
   0.180E+02 -.447E+02 0.262E+01   -.187E+02 0.465E+02 -.350E+01   0.733E+00 -.176E+01 0.875E+00   0.467E-02 -.160E-02 -.145E-02
   0.217E+02 0.270E+02 -.673E+01   -.222E+02 -.281E+02 0.651E+01   0.498E+00 0.108E+01 0.212E+00   0.130E-02 -.779E-03 -.301E-02
   -.217E+02 0.270E+02 0.673E+01   0.222E+02 -.281E+02 -.651E+01   -.498E+00 0.108E+01 -.212E+00   -.130E-02 -.779E-03 0.301E-02
   -.265E+02 -.403E+02 0.402E+01   0.276E+02 0.419E+02 -.356E+01   -.118E+01 -.158E+01 -.458E+00   -.195E-02 0.584E-03 0.425E-03
   0.197E+02 -.431E+02 -.148E+02   -.207E+02 0.451E+02 0.140E+02   0.988E+00 -.198E+01 0.781E+00   0.678E-03 0.178E-02 -.392E-02
   0.240E+02 0.587E+02 0.125E+01   -.250E+02 -.609E+02 -.185E+01   0.107E+01 0.228E+01 0.601E+00   -.102E-03 -.974E-03 -.239E-02
   -.158E+02 0.472E+02 -.229E+01   0.166E+02 -.487E+02 0.311E+01   -.781E+00 0.152E+01 -.822E+00   -.234E-02 0.102E-02 0.248E-02
   -.248E+02 -.489E+02 0.716E+01   0.258E+02 0.505E+02 -.628E+01   -.978E+00 -.156E+01 -.870E+00   -.100E-02 0.159E-03 0.103E-02
   0.248E+02 -.489E+02 -.715E+01   -.258E+02 0.505E+02 0.628E+01   0.978E+00 -.156E+01 0.870E+00   0.100E-02 0.159E-03 -.103E-02
   0.188E+02 0.364E+02 -.685E+01   -.196E+02 -.378E+02 0.622E+01   0.790E+00 0.144E+01 0.623E+00   0.178E-02 -.118E-02 -.141E-02
   -.188E+02 0.364E+02 0.685E+01   0.196E+02 -.378E+02 -.622E+01   -.790E+00 0.144E+01 -.623E+00   -.178E-02 -.118E-02 0.141E-02
   0.326E+02 -.390E+02 -.277E+02   -.336E+02 0.399E+02 0.292E+02   0.993E+00 -.922E+00 -.145E+01   0.280E-02 0.124E-02 0.639E-03
   0.406E+02 -.419E+02 -.353E+01   -.414E+02 0.438E+02 0.271E+01   0.815E+00 -.184E+01 0.811E+00   0.117E-02 0.678E-03 -.171E-02
   0.250E+02 0.515E+02 -.157E+02   -.259E+02 -.538E+02 0.144E+02   0.869E+00 0.230E+01 0.123E+01   0.180E-02 0.948E-04 -.148E-02
   -.224E+02 0.762E+02 0.430E+01   0.236E+02 -.783E+02 -.347E+01   -.114E+01 0.211E+01 -.827E+00   -.321E-02 0.169E-02 0.410E-02
   -.253E+02 -.371E+02 0.536E+01   0.256E+02 0.386E+02 -.484E+01   -.306E+00 -.146E+01 -.514E+00   -.496E-03 0.130E-02 0.157E-02
   0.253E+02 -.371E+02 -.536E+01   -.256E+02 0.386E+02 0.484E+01   0.306E+00 -.146E+01 0.514E+00   0.496E-03 0.130E-02 -.157E-02
   0.248E+02 0.292E+02 -.736E+01   -.256E+02 -.304E+02 0.642E+01   0.853E+00 0.119E+01 0.936E+00   -.562E-03 -.607E-03 -.280E-02
   -.248E+02 0.292E+02 0.736E+01   0.256E+02 -.304E+02 -.642E+01   -.853E+00 0.119E+01 -.936E+00   0.562E-03 -.607E-03 0.280E-02
   -.197E+02 -.431E+02 0.148E+02   0.207E+02 0.451E+02 -.140E+02   -.988E+00 -.198E+01 -.781E+00   -.678E-03 0.178E-02 0.392E-02
   0.265E+02 -.403E+02 -.402E+01   -.276E+02 0.419E+02 0.356E+01   0.118E+01 -.158E+01 0.458E+00   0.195E-02 0.584E-03 -.425E-03
   0.158E+02 0.472E+02 0.229E+01   -.166E+02 -.487E+02 -.311E+01   0.781E+00 0.152E+01 0.822E+00   0.234E-02 0.102E-02 -.248E-02
   -.240E+02 0.587E+02 -.125E+01   0.250E+02 -.609E+02 0.185E+01   -.107E+01 0.228E+01 -.601E+00   0.102E-03 -.974E-03 0.239E-02
   -.533E+02 -.119E+02 0.940E+00   0.559E+02 0.119E+02 -.140E+01   -.261E+01 -.392E-01 0.460E+00   -.221E-02 -.169E-02 -.224E-02
   0.533E+02 -.119E+02 -.940E+00   -.559E+02 0.119E+02 0.140E+01   0.261E+01 -.392E-01 -.460E+00   0.221E-02 -.169E-02 0.224E-02
   -.445E+02 0.761E+01 -.182E+02   0.460E+02 -.784E+01 0.174E+02   -.151E+01 0.229E+00 0.724E+00   -.412E-02 -.359E-04 -.336E-03
   0.386E+02 0.690E+01 0.131E+02   -.401E+02 -.661E+01 -.128E+02   0.143E+01 -.287E+00 -.327E+00   0.247E-02 -.106E-04 0.837E-03
   0.876E+01 -.301E+02 -.569E+02   -.877E+01 0.301E+02 0.585E+02   0.191E-01 -.181E-01 -.156E+01   -.268E-02 -.213E-02 -.416E-02
   -.876E+01 -.301E+02 0.569E+02   0.877E+01 0.301E+02 -.585E+02   -.191E-01 -.181E-01 0.156E+01   0.268E-02 -.213E-02 0.416E-02
   -.560E+02 0.508E+01 -.172E+02   0.586E+02 -.474E+01 0.164E+02   -.264E+01 -.332E+00 0.762E+00   -.182E-02 0.703E-03 -.568E-03
   0.158E+02 0.633E+02 -.215E+02   -.166E+02 -.649E+02 0.229E+02   0.759E+00 0.158E+01 -.138E+01   0.287E-02 0.376E-02 0.355E-03
   -.546E+02 -.465E+01 -.143E+02   0.573E+02 0.451E+01 0.140E+02   -.272E+01 0.140E+00 0.302E+00   -.223E-02 -.105E-02 0.790E-03
   0.546E+02 -.465E+01 0.143E+02   -.573E+02 0.451E+01 -.140E+02   0.272E+01 0.140E+00 -.302E+00   0.223E-02 -.105E-02 -.790E-03
   -.386E+02 0.690E+01 -.131E+02   0.401E+02 -.661E+01 0.128E+02   -.143E+01 -.287E+00 0.327E+00   -.247E-02 -.106E-04 -.837E-03
   0.445E+02 0.761E+01 0.182E+02   -.460E+02 -.784E+01 -.174E+02   0.151E+01 0.229E+00 -.724E+00   0.412E-02 -.359E-04 0.336E-03
   -.541E+02 -.821E+01 -.241E+02   0.559E+02 0.817E+01 0.237E+02   -.177E+01 0.385E-01 0.409E+00   -.239E-02 -.784E-03 -.882E-03
   0.541E+02 -.821E+01 0.241E+02   -.559E+02 0.817E+01 -.237E+02   0.177E+01 0.385E-01 -.409E+00   0.239E-02 -.784E-03 0.882E-03
   -.158E+02 0.633E+02 0.215E+02   0.166E+02 -.649E+02 -.229E+02   -.759E+00 0.158E+01 0.138E+01   -.287E-02 0.376E-02 -.355E-03
   0.560E+02 0.508E+01 0.172E+02   -.586E+02 -.474E+01 -.164E+02   0.264E+01 -.332E+00 -.762E+00   0.182E-02 0.703E-03 0.568E-03
   -.768E+01 0.951E+01 0.134E+01   0.930E+01 -.105E+02 -.125E+01   -.161E+01 0.948E+00 -.999E-01   -.356E-03 0.471E-03 0.207E-03
   -.489E-06 -.215E+01 -.941E-06   -.357E-05 0.329E+01 -.692E-05   0.000E+00 -.115E+01 0.000E+00   -.265E-09 -.711E-04 -.303E-08
   -.288E+01 0.311E+01 -.356E+01   0.255E+01 -.328E+01 0.264E+01   0.315E+00 0.164E+00 0.912E+00   0.792E-04 0.220E-03 0.682E-04
   0.641E-06 -.256E+01 0.981E-06   0.470E-05 0.296E+01 0.721E-05   0.000E+00 -.395E+00 0.000E+00   -.120E-09 -.195E-03 0.190E-08
   0.768E+01 0.951E+01 -.134E+01   -.930E+01 -.105E+02 0.125E+01   0.161E+01 0.948E+00 0.999E-01   0.356E-03 0.471E-03 -.207E-03
   -.496E-06 0.274E+01 -.894E-06   -.364E-05 -.256E+01 -.657E-05   0.000E+00 -.187E+00 0.000E+00   0.746E-09 -.968E-05 -.199E-08
   0.288E+01 0.311E+01 0.356E+01   -.255E+01 -.328E+01 -.264E+01   -.315E+00 0.164E+00 -.912E+00   -.792E-04 0.220E-03 -.682E-04
   0.216E-07 -.127E+02 0.147E-05   0.121E-06 0.140E+02 0.109E-04   0.000E+00 -.131E+01 0.000E+00   -.239E-09 -.483E-03 0.775E-09
   0.567E+00 -.875E+01 0.269E+01   -.184E+00 0.784E+01 -.337E+01   -.387E+00 0.907E+00 0.681E+00   0.546E-05 -.148E-03 0.241E-03
   0.328E+01 0.481E+01 -.401E+00   -.279E+01 -.362E+01 0.603E+00   -.486E+00 -.119E+01 -.201E+00   -.743E-04 -.486E-04 -.699E-04
   -.309E+01 -.411E+01 -.468E+01   0.295E+01 0.401E+01 0.461E+01   0.136E+00 0.978E-01 0.758E-01   -.129E-03 0.399E-04 -.621E-04
   -.791E+00 0.104E+02 -.120E+01   0.741E+00 -.967E+01 0.121E+01   0.519E-01 -.684E+00 -.405E-02   -.199E-04 0.773E-04 -.520E-04
   -.567E+00 -.875E+01 -.269E+01   0.184E+00 0.784E+01 0.337E+01   0.387E+00 0.907E+00 -.681E+00   -.546E-05 -.148E-03 -.241E-03
   -.328E+01 0.481E+01 0.401E+00   0.279E+01 -.362E+01 -.603E+00   0.486E+00 -.119E+01 0.201E+00   0.743E-04 -.486E-04 0.699E-04
   0.184E+01 -.554E+01 -.344E+01   -.150E+01 0.517E+01 0.301E+01   -.345E+00 0.372E+00 0.430E+00   -.315E-04 0.229E-04 -.368E-04
   -.687E+00 -.745E-01 -.455E-01   0.153E+00 -.732E+00 -.258E+00   0.535E+00 0.807E+00 0.309E+00   -.186E-04 0.303E-04 0.804E-04
   -.127E+01 -.813E+01 0.792E+00   0.133E+01 0.746E+01 -.714E+00   -.559E-01 0.668E+00 -.765E-01   -.510E-04 -.169E-04 0.117E-04
   0.396E+00 0.816E+01 -.673E+00   -.419E+00 -.738E+01 0.656E+00   0.237E-01 -.784E+00 0.182E-01   0.185E-04 -.668E-04 0.249E-05
   -.184E+01 -.554E+01 0.344E+01   0.150E+01 0.517E+01 -.301E+01   0.345E+00 0.372E+00 -.430E+00   0.315E-04 0.229E-04 0.368E-04
   0.687E+00 -.745E-01 0.455E-01   -.153E+00 -.732E+00 0.258E+00   -.535E+00 0.807E+00 -.309E+00   0.186E-04 0.303E-04 -.804E-04
   0.127E+01 -.813E+01 -.792E+00   -.133E+01 0.746E+01 0.714E+00   0.559E-01 0.668E+00 0.765E-01   0.510E-04 -.169E-04 -.117E-04
   -.396E+00 0.816E+01 0.673E+00   0.419E+00 -.738E+01 -.656E+00   -.237E-01 -.784E+00 -.182E-01   -.185E-04 -.668E-04 -.249E-05
   0.309E+01 -.411E+01 0.468E+01   -.295E+01 0.401E+01 -.461E+01   -.136E+00 0.978E-01 -.758E-01   0.129E-03 0.399E-04 0.621E-04
   0.791E+00 0.104E+02 0.120E+01   -.741E+00 -.967E+01 -.121E+01   -.519E-01 -.684E+00 0.405E-02   0.199E-04 0.773E-04 0.520E-04
   0.462E+01 0.451E+01 0.434E+01   -.493E+01 -.342E+01 -.448E+01   0.315E+00 -.109E+01 0.143E+00   -.648E-04 -.919E-04 0.173E-03
   -.267E+01 0.593E+00 -.501E+00   0.259E+01 -.647E+00 0.391E+00   0.815E-01 0.541E-01 0.109E+00   -.301E-05 0.688E-04 -.181E-04
   -.543E+01 -.167E+01 -.400E+00   0.442E+01 0.172E+01 0.757E+00   0.101E+01 -.567E-01 -.357E+00   -.126E-03 -.112E-03 -.857E-04
   0.267E+01 0.593E+00 0.501E+00   -.259E+01 -.647E+00 -.391E+00   -.815E-01 0.541E-01 -.109E+00   0.301E-05 0.688E-04 0.181E-04
   0.543E+01 -.167E+01 0.400E+00   -.442E+01 0.172E+01 -.757E+00   -.101E+01 -.567E-01 0.357E+00   0.126E-03 -.112E-03 0.857E-04
   0.933E+00 0.187E+01 0.318E+00   -.799E+00 -.219E+01 0.211E-01   -.133E+00 0.318E+00 -.336E+00   0.439E-04 0.104E-03 -.190E-04
   -.462E+01 0.451E+01 -.434E+01   0.493E+01 -.342E+01 0.448E+01   -.315E+00 -.109E+01 -.143E+00   0.648E-04 -.919E-04 -.173E-03
   -.933E+00 0.187E+01 -.318E+00   0.799E+00 -.219E+01 -.211E-01   0.133E+00 0.318E+00 0.336E+00   -.439E-04 0.104E-03 0.190E-04
 -----------------------------------------------------------------------------------------------
   0.274E-03 0.240E+01 -.697E-03   0.176E-12 0.151E-12 -.197E-13   0.128E-14 -.240E+01 -.111E-15   -.694E-09 0.195E-03 -.761E-08
 
 
 POSITION                                       TOTAL-FORCE (eV/Angst)
 -----------------------------------------------------------------------------------
      1.01630      1.92039      1.89710        -0.003560     -0.001703      0.002658
      7.65094      1.92039      9.99745         0.003560     -0.001703     -0.002658
      7.76900      9.34316     10.18910         0.004897     -0.003831     -0.001226
      0.89824      9.34316      1.70545        -0.004897     -0.003831      0.001226
      4.19874      7.45948      1.64052         0.001140      0.004352      0.008038
     -2.65621      7.54673     10.69693         0.002567      0.001607     -0.005101
     -2.33877      4.07379     10.45313         0.001086     -0.000096     -0.005325
      4.23556      3.97429      1.60021        -0.006431     -0.002582      0.004398
     -1.48111      1.72679      7.74091        -0.004729     -0.000460      0.003612
     10.14835      1.72679      4.15364         0.004729     -0.000460     -0.003612
     10.07896      9.61943      4.16297        -0.002204     -0.005155     -0.004394
     -1.41171      9.61943      7.73158         0.002204     -0.005155      0.004394
      2.05017      7.46545      7.58925         0.003647      0.004197      0.001959
     -0.04129      7.40414      4.47319         0.000678     -0.005428     -0.000564
     -0.08927      3.92857      4.63208         0.000269      0.000919      0.001608
      1.88219      4.01527      7.76155         0.001151     -0.002947      0.009100
      7.67887      1.76000      1.49538         0.002068      0.002203      0.003786
      0.98837      1.76000     10.39917        -0.002068      0.002203     -0.003786
      1.04455      9.71569     10.39262         0.000943     -0.001933     -0.003240
      7.62269      9.71569      1.50193        -0.000943     -0.001933      0.003240
     11.32345      7.54673      1.19763        -0.002567      0.001607      0.005101
      4.46850      7.45948     10.25404        -0.001140      0.004352     -0.008038
      4.43168      3.97429     10.29434         0.006431     -0.002582     -0.004398
     11.00601      4.07379      1.44143        -0.001086     -0.000096      0.005325
      5.08731      1.80677      7.57688        -0.003362      0.004967      0.002235
      3.57993      1.80677      4.31768         0.003362      0.004967     -0.002235
      3.37747      9.75420      4.20024         0.000507      0.002731     -0.003534
      5.28978      9.75420      7.69431        -0.000507      0.002731      0.003534
      8.70853      7.40414      7.42137        -0.000678     -0.005428      0.000564
      6.61707      7.46545      4.30531        -0.003647      0.004197     -0.001959
      6.78505      4.01527      4.13300        -0.001151     -0.002947     -0.009100
      8.75651      3.92857      7.26248        -0.000269      0.000919     -0.001608
     -0.33556     11.33497      4.64530         0.007037     -0.005928      0.001310
      9.00280     11.33497      7.24926        -0.007037     -0.005928     -0.001310
      2.98474      5.62665      4.50847         0.005686     -0.002360     -0.002151
     -1.12406      5.88529      7.61559        -0.004913      0.001854      0.001423
     -2.53644     11.33152     10.68530         0.000496     -0.000779      0.006607
     11.20368     11.33152      1.20925        -0.000496     -0.000779     -0.006607
      0.60255      5.97128     10.65883        -0.003270      0.006630      0.005056
      1.12214      5.82621      1.32491        -0.003843     -0.013326      0.010254
      6.45071     11.37314      4.58899         0.010156     -0.000763     -0.000969
      2.21653     11.37314      7.30557        -0.010156     -0.000763      0.000969
      9.79130      5.88529      4.27896         0.004913      0.001854     -0.001423
      5.68250      5.62665      7.38609        -0.005686     -0.002360      0.002151
      4.01328      0.03608     10.53352         0.007364      0.002121     -0.002221
      4.65396      0.03608      1.36104        -0.007364      0.002121      0.002221
      7.54510      5.82621     10.56965         0.003843     -0.013326     -0.010254
      8.06469      5.97128      1.23573         0.003270      0.006630     -0.005056
      3.41466      5.68615     -0.01018         0.008022     -0.000113     -0.008041
     -2.39589      0.01206      6.08382        -0.000000     -0.002293      0.000000
      0.95357      5.71027      6.07072        -0.007655     -0.000164     -0.008611
      6.72951      0.03959     -0.13654        -0.000000     -0.000474      0.000000
      5.25258      5.68615     11.90474        -0.008022     -0.000113      0.008041
      4.33362     11.39856      5.94728        -0.000000     -0.001995      0.000000
      7.71367      5.71027      5.82383         0.007655     -0.000164      0.008611
      0.00000      7.78434      0.00000        -0.000000      0.026043      0.000000
     12.37030      1.40271      2.47190        -0.004008     -0.001030      0.005576
     -3.43076      9.87529      9.15252        -0.002501     -0.004465      0.000965
      2.10965      7.61635      3.14401        -0.000126      0.002750      0.003121
     -0.20610      4.12005      9.14891         0.002665      0.005530      0.004239
     -3.70306      1.40271      9.42266         0.004008     -0.001030     -0.005576
     12.09800      9.87529      2.74203         0.002501     -0.004465     -0.000965
     -0.00947      7.75771      8.87203         0.000340      0.002631     -0.002404
      1.99396      3.48371      3.27702         0.001674      0.001163      0.005722
      5.71791      1.64886      3.01914         0.002594      0.001520      0.001625
      3.11617      9.80347      8.97712         0.000726      0.000648      0.001135
      8.67671      7.75771      3.02253        -0.000340      0.002631      0.002404
      6.67328      3.48371      8.61754        -0.001674      0.001163     -0.005722
      2.94933      1.64886      8.87542        -0.002594      0.001520     -0.001625
      5.55107      9.80347      2.91744        -0.000726      0.000648     -0.001135
      6.55759      7.61635      8.75054         0.000126      0.002750     -0.003121
      8.87334      4.12005      2.74564        -0.002665      0.005530     -0.004239
      2.44726      0.29768      2.63022         0.003876     -0.001910      0.001354
      5.20870      5.70010      3.12584        -0.001017      0.000337     -0.001080
     -0.66677      0.01570      9.35120        -0.001880     -0.001024      0.000545
      3.45854      5.70010      8.76871         0.001017      0.000337      0.001080
      9.33401      0.01570      2.54335         0.001880     -0.001024     -0.000545
     12.04616      5.57766      3.16431         0.000358     -0.000803      0.002504
      6.21998      0.29768      9.26434        -0.003876     -0.001910     -0.001354
     -3.37891      5.57766      8.73024        -0.000358     -0.000803     -0.002504
 -----------------------------------------------------------------------------------
    total drift:                                0.000274     -0.000452     -0.000697


--------------------------------------------------------------------------------------------------------



  FREE ENERGIE OF THE ION-ELECTRON SYSTEM (eV)
  ---------------------------------------------------
  free  energy   TOTEN  =      -274.09627002 eV

  energy  without entropy=     -274.09627002  energy(sigma->0) =     -274.09627002
 
 d Force = 0.1612232E-03[ 0.134E-04, 0.309E-03]  d Energy = 0.1502859E-03 0.109E-04
 d Force =-0.1335822E+01[-0.134E+01,-0.133E+01]  d Ewald  =-0.1335825E+01 0.262E-05


--------------------------------------------------------------------------------------------------------


    POTLOK:  cpu time    0.2898: real time    0.2899


--------------------------------------------------------------------------------------------------------




--------------------------------------------------------------------------------------------------------


    WAVPRE:  cpu time    0.0689: real time    0.0711
    FEWALD:  cpu time    0.0016: real time    0.0016
    ORTHCH:  cpu time    0.9005: real time    0.9012
     LOOP+:  cpu time   41.2834: real time   41.3399


--------------------------------------- Iteration      6(   1)  ---------------------------------------


    POTLOK:  cpu time    0.1292: real time    0.1330
    SETDIJ:  cpu time    0.1569: real time    0.1570
     EDDAV:  cpu time    5.8146: real time    5.8210
       DOS:  cpu time    0.0001: real time    0.0001
    CHARGE:  cpu time    0.2239: real time    0.2240
    MIXING:  cpu time    0.0041: real time    0.0041
    --------------------------------------------
      LOOP:  cpu time    6.3289: real time    6.3393

 eigenvalue-minimisations  :   560
 total energy-change (2. order) : 0.3931704E-04  (-0.7431357E-02)
 number of electron     383.9999992 magnetization 
 augmentation part      -49.4162062 magnetization 

 Broyden mixing:
  rms(total) = 0.50707E-02    rms(broyden)= 0.50700E-02
  rms(prec ) = 0.57647E-02
  weight for this iteration     100.00

 Free energy of the ion-electron system (eV)
  ---------------------------------------------------
  alpha Z        PSCENC =       310.04809462
  Ewald energy   TEWEN  =    -15413.52973149
  -Hartree energ DENC   =     -4573.16283467
  -exchange      EXHF   =         0.00000000
  -V(xc)+E(xc)   XCENC  =       447.04504973
  PAW double counting   =     11244.46413731   -10653.75826755
  entropy T*S    EENTRO =        -0.00000000
  eigenvalues    EBANDS =     -1859.46183288
  atomic energy  EATOM  =     20224.25915541
  Solvation  Ediel_sol  =         0.00000000
  ---------------------------------------------------
  free energy    TOTEN  =      -274.09622953 eV

  energy without entropy =     -274.09622953  energy(sigma->0) =     -274.09622953


--------------------------------------------------------------------------------------------------------




--------------------------------------- Iteration      6(   2)  ---------------------------------------


    POTLOK:  cpu time    0.1303: real time    0.1352
    SETDIJ:  cpu time    0.1569: real time    0.1569
     EDDAV:  cpu time    5.8149: real time    5.8220
       DOS:  cpu time    0.0003: real time    0.0003
    CHARGE:  cpu time    0.2236: real time    0.2237
    MIXING:  cpu time    0.0044: real time    0.0043
    --------------------------------------------
      LOOP:  cpu time    6.3304: real time    6.3424

 eigenvalue-minimisations  :   560
 total energy-change (2. order) :-0.3133078E-03  (-0.3413463E-03)
 number of electron     383.9999992 magnetization 
 augmentation part      -49.4163214 magnetization 

 Broyden mixing:
  rms(total) = 0.15956E-02    rms(broyden)= 0.15930E-02
  rms(prec ) = 0.21252E-02
  weight for this iteration     100.00

 eigenvalues of (default mixing * dielectric matrix)
  average eigenvalue GAMMA=   0.8971
  0.8971

 Free energy of the ion-electron system (eV)
  ---------------------------------------------------
  alpha Z        PSCENC =       310.04809462
  Ewald energy   TEWEN  =    -15413.52973149
  -Hartree energ DENC   =     -4573.14087083
  -exchange      EXHF   =         0.00000000
  -V(xc)+E(xc)   XCENC  =       447.04380385
  PAW double counting   =     11244.40712652   -10653.70060268
  entropy T*S    EENTRO =        -0.00000000
  eigenvalues    EBANDS =     -1859.48351822
  atomic energy  EATOM  =     20224.25915541
  Solvation  Ediel_sol  =         0.00000000
  ---------------------------------------------------
  free energy    TOTEN  =      -274.09654284 eV

  energy without entropy =     -274.09654284  energy(sigma->0) =     -274.09654284


--------------------------------------------------------------------------------------------------------




--------------------------------------- Iteration      6(   3)  ---------------------------------------


    POTLOK:  cpu time    0.1305: real time    0.1663
    SETDIJ:  cpu time    0.1578: real time    0.1578
     EDDAV:  cpu time    5.9255: real time    5.9328
       DOS:  cpu time    0.0002: real time    0.0002
    --------------------------------------------
      LOOP:  cpu time    6.2140: real time    6.2571

 eigenvalue-minimisations  :   560
 total energy-change (2. order) : 0.2976638E-05  (-0.5172331E-05)
 number of electron     383.9999992 magnetization 
 augmentation part      -49.4163214 magnetization 

 Free energy of the ion-electron system (eV)
  ---------------------------------------------------
  alpha Z        PSCENC =       310.04809462
  Ewald energy   TEWEN  =    -15413.52973149
  -Hartree energ DENC   =     -4573.13731312
  -exchange      EXHF   =         0.00000000
  -V(xc)+E(xc)   XCENC  =       447.04346506
  PAW double counting   =     11244.38531495   -10653.67840616
  entropy T*S    EENTRO =        -0.00000000
  eigenvalues    EBANDS =     -1859.48711911
  atomic energy  EATOM  =     20224.25915541
  Solvation  Ediel_sol  =         0.00000000
  ---------------------------------------------------
  free energy    TOTEN  =      -274.09653986 eV

  energy without entropy =     -274.09653986  energy(sigma->0) =     -274.09653986


--------------------------------------------------------------------------------------------------------




 average (electrostatic) potential at core
  the test charge radii are     0.9406  1.4837  0.9748
  (the norm of the test charge is              1.0000)
       1 -92.6842       2 -92.6842       3 -94.2191       4 -94.2191       5 -94.0880
       6 -94.7279       7 -94.1127       8 -94.0444       9 -93.5646      10 -93.5646
      11 -93.6621      12 -93.6621      13 -94.1630      14 -94.0158      15 -94.0103
      16 -94.1589      17 -93.9871      18 -93.9871      19 -93.9793      20 -93.9793
      21 -94.7279      22 -94.0880      23 -94.0445      24 -94.1127      25 -93.9968
      26 -93.9968      27 -94.0130      28 -94.0130      29 -94.0158      30 -94.1630
      31 -94.1589      32 -94.0103      33 -93.7034      34 -93.7034      35 -94.0649
      36 -94.1290      37 -92.5424      38 -92.5424      39 -94.0673      40 -94.6631
      41 -93.9822      42 -93.9822      43 -94.1290      44 -94.0650      45 -94.0836
      46 -94.0836      47 -94.6631      48 -94.0673      49 -41.9813      50 -41.5378
      51 -41.8867      52 -41.9105      53 -41.9813      54 -41.8057      55 -41.8867
      56 -42.2122      57 -27.8288      58 -28.1172      59 -28.7388      60 -28.7758
      61 -27.8288      62 -28.1171      63 -28.9028      64 -28.3812      65 -28.6624
      66 -28.6633      67 -28.9028      68 -28.3812      69 -28.6624      70 -28.6633
      71 -28.7388      72 -28.7757      73 -28.5208      74 -28.7522      75 -27.9693
      76 -28.7522      77 -27.9693      78 -28.8426      79 -28.5208      80 -28.8427
 
 
 
 E-fermi :   0.4204     XC(G=0):  -7.8733     alpha+bet : -7.9187


 k-point     1 :       0.0000    0.0000    0.0000
  band No.  band energies     occupation 
      1     -14.6486      2.00000
      2     -14.3836      2.00000
      3     -14.1714      2.00000
      4     -14.1409      2.00000
      5     -14.0855      2.00000
      6     -14.0581      2.00000
      7     -14.0413      2.00000
      8     -13.9187      2.00000
      9     -13.8695      2.00000
     10     -13.8335      2.00000
     11     -13.8058      2.00000
     12     -13.7716      2.00000
     13     -13.7451      2.00000
     14     -13.7301      2.00000
     15     -13.7198      2.00000
     16     -13.6777      2.00000
     17     -13.6735      2.00000
     18     -13.6581      2.00000
     19     -13.6463      2.00000
     20     -13.5994      2.00000
     21     -13.5960      2.00000
     22     -13.5817      2.00000
     23     -13.5784      2.00000
     24     -13.5537      2.00000
     25     -13.5408      2.00000
     26     -13.4973      2.00000
     27     -13.4905      2.00000
     28     -13.4571      2.00000
     29     -13.4510      2.00000
     30     -13.4436      2.00000
     31     -13.4104      2.00000
     32     -13.4065      2.00000
     33     -13.4005      2.00000
     34     -13.3795      2.00000
     35     -13.3557      2.00000
     36     -13.3411      2.00000
     37     -13.3183      2.00000
     38     -13.3014      2.00000
     39     -13.2858      2.00000
     40     -13.2754      2.00000
     41     -13.1707      2.00000
     42     -13.1160      2.00000
     43     -12.9583      2.00000
     44     -12.9265      2.00000
     45     -12.2924      2.00000
     46     -12.2694      2.00000
     47     -12.1494      2.00000
     48     -12.1447      2.00000
     49      -5.5994      2.00000
     50      -5.3073      2.00000
     51      -5.2584      2.00000
     52      -5.1473      2.00000
     53      -5.1215      2.00000
     54      -5.0908      2.00000
     55      -4.9925      2.00000
     56      -4.6687      2.00000
     57      -3.8659      2.00000
     58      -3.6802      2.00000
     59      -3.6791      2.00000
     60      -3.4796      2.00000
     61      -3.4216      2.00000
     62      -3.3922      2.00000
     63      -3.3898      2.00000
     64      -3.3632      2.00000
     65      -3.2700      2.00000
     66      -3.2470      2.00000
     67      -3.2278      2.00000
     68      -3.2258      2.00000
     69      -3.1777      2.00000
     70      -3.0646      2.00000
     71      -3.0399      2.00000
     72      -3.0102      2.00000
     73      -3.0043      2.00000
     74      -2.9699      2.00000
     75      -2.9568      2.00000
     76      -2.8989      2.00000
     77      -2.8221      2.00000
     78      -2.7585      2.00000
     79      -2.7383      2.00000
     80      -2.7327      2.00000
     81      -2.6553      2.00000
     82      -2.6201      2.00000
     83      -2.6148      2.00000
     84      -2.5928      2.00000
     85      -2.5649      2.00000
     86      -2.5528      2.00000
     87      -2.5020      2.00000
     88      -2.4538      2.00000
     89      -2.4121      2.00000
     90      -2.3886      2.00000
     91      -2.3650      2.00000
     92      -2.3493      2.00000
     93      -2.3222      2.00000
     94      -2.3130      2.00000
     95      -2.3053      2.00000
     96      -2.3044      2.00000
     97      -2.2530      2.00000
     98      -2.2196      2.00000
     99      -2.2167      2.00000
    100      -2.1917      2.00000
    101      -2.1619      2.00000
    102      -2.1422      2.00000
    103      -2.1212      2.00000
    104      -2.0641      2.00000
    105      -2.0168      2.00000
    106      -2.0021      2.00000
    107      -1.9696      2.00000
    108      -1.9511      2.00000
    109      -1.9297      2.00000
    110      -1.9110      2.00000
    111      -1.9033      2.00000
    112      -1.8875      2.00000
    113      -1.8553      2.00000
    114      -1.8240      2.00000
    115      -1.8217      2.00000
    116      -1.7914      2.00000
    117      -1.7742      2.00000
    118      -1.7198      2.00000
    119      -1.7017      2.00000
    120      -1.6845      2.00000
    121      -1.6742      2.00000
    122      -1.6741      2.00000
    123      -1.6463      2.00000
    124      -1.6417      2.00000
    125      -1.6103      2.00000
    126      -1.6066      2.00000
    127      -1.5797      2.00000
    128      -1.5577      2.00000
    129      -1.5510      2.00000
    130      -1.5264      2.00000
    131      -1.5185      2.00000
    132      -1.5124      2.00000
    133      -1.4869      2.00000
    134      -1.4626      2.00000
    135      -1.4471      2.00000
    136      -1.4389      2.00000
    137      -1.4319      2.00000
    138      -1.3897      2.00000
    139      -1.3896      2.00000
    140      -1.3802      2.00000
    141      -1.3496      2.00000
    142      -1.3484      2.00000
    143      -1.3317      2.00000
    144      -1.3301      2.00000
    145      -1.3076      2.00000
    146      -1.2964      2.00000
    147      -1.2828      2.00000
    148      -1.2659      2.00000
    149      -1.2517      2.00000
    150      -1.2418      2.00000
    151      -1.2261      2.00000
    152      -1.2091      2.00000
    153      -1.1948      2.00000
    154      -1.1803      2.00000
    155      -1.1788      2.00000
    156      -1.1566      2.00000
    157      -1.1487      2.00000
    158      -1.1169      2.00000
    159      -1.0932      2.00000
    160      -1.0817      2.00000
    161      -1.0800      2.00000
    162      -1.0740      2.00000
    163      -1.0588      2.00000
    164      -1.0537      2.00000
    165      -1.0120      2.00000
    166      -0.9922      2.00000
    167      -0.9805      2.00000
    168      -0.9723      2.00000
    169      -0.9458      2.00000
    170      -0.9301      2.00000
    171      -0.9206      2.00000
    172      -0.9051      2.00000
    173      -0.8806      2.00000
    174      -0.8600      2.00000
    175      -0.8324      2.00000
    176      -0.8005      2.00000
    177      -0.7951      2.00000
    178      -0.7594      2.00000
    179      -0.7534      2.00000
    180      -0.6731      2.00000
    181      -0.6719      2.00000
    182      -0.6041      2.00000
    183      -0.5965      2.00000
    184      -0.5263      2.00000
    185      -0.3671      2.00000
    186      -0.3561      2.00000
    187      -0.3416      2.00000
    188      -0.2757      2.00000
    189      -0.2444      2.00000
    190      -0.2274      2.00000
    191      -0.1646      2.00000
    192      -0.0668      2.00000
    193       2.4832      0.00000
    194       2.8035      0.00000
    195       2.8189      0.00000
    196       2.9389      0.00000
    197       3.1370      0.00000
    198       3.1491      0.00000
    199       3.2238      0.00000
    200       3.4293      0.00000
    201       5.6739      0.00000
    202       5.8119      0.00000
    203       5.9145      0.00000
    204       5.9630      0.00000
    205       6.0645      0.00000
    206       6.0756      0.00000
    207       6.1344      0.00000
    208       6.1880      0.00000
    209       6.2654      0.00000
    210       6.3708      0.00000
    211       6.4909      0.00000
    212       6.5370      0.00000
    213       6.6342      0.00000
    214       6.6417      0.00000
    215       6.6991      0.00000
    216       6.7426      0.00000
    217       6.8253      0.00000
    218       6.8386      0.00000
    219       6.9211      0.00000
    220       6.9729      0.00000
    221       6.9915      0.00000
    222       7.0513      0.00000
    223       7.1798      0.00000
    224       7.2359      0.00000
    225       7.2715      0.00000
    226       7.3658      0.00000
    227       7.4445      0.00000
    228       7.4614      0.00000
    229       7.5417      0.00000
    230       7.5613      0.00000
    231       7.6032      0.00000
    232       7.6975      0.00000
    233       7.7855      0.00000
    234       7.8054      0.00000
    235       7.8209      0.00000
    236       7.8784      0.00000
    237       7.8847      0.00000
    238       7.9051      0.00000
    239       7.9845      0.00000
    240       8.0076      0.00000


--------------------------------------------------------------------------------------------------------


 soft charge-density along one line, spin component           1
         0         1         2         3         4         5         6         7         8         9
 total charge-density along one line
 
 pseudopotential strength for first ion, spin component:           1
 47.405  -0.016  -0.003   0.019   0.003  -0.000   0.000   0.000
 -0.016   0.019  -0.000   0.000   0.000  -0.000   0.000   0.000
 -0.003  -0.000   9.109   0.000  -0.000   0.002  -0.000   0.000
  0.019   0.000   0.000   9.105   0.000  -0.000   0.002  -0.000
  0.003   0.000  -0.000   0.000   9.110   0.000  -0.000   0.001
 -0.000  -0.000   0.002  -0.000   0.000   0.035   0.000   0.000
  0.000   0.000  -0.000   0.002  -0.000   0.000   0.035   0.000
  0.000   0.000   0.000  -0.000   0.001   0.000   0.000   0.035
 total augmentation occupancy for first ion, spin component:           1
  1.911   0.427   0.009  -0.060  -0.010   0.011  -0.067  -0.011
  0.427   0.249  -0.054   0.336   0.056   0.013  -0.100  -0.023
  0.009  -0.054   1.759  -0.001   0.002  -0.398  -0.007   0.002
 -0.060   0.336  -0.001   1.797  -0.001  -0.007  -0.330  -0.010
 -0.010   0.056   0.002  -0.001   1.751   0.002  -0.010  -0.422
  0.011   0.013  -0.398  -0.007   0.002   0.101   0.003  -0.000
 -0.067  -0.100  -0.007  -0.330  -0.010   0.003   0.078   0.006
 -0.011  -0.023   0.002  -0.010  -0.422  -0.000   0.006   0.114


------------------------ aborting loop because EDIFF is reached ----------------------------------------


 


 total charge     
 
# of ion       s       p       d       tot
------------------------------------------
    1        1.589   3.591   0.000   5.180
    2        1.589   3.591   0.000   5.180
    3        1.599   3.535   0.000   5.133
    4        1.599   3.535   0.000   5.133
    5        1.598   3.544   0.000   5.141
    6        1.602   3.527   0.000   5.130
    7        1.598   3.539   0.000   5.137
    8        1.599   3.536   0.000   5.135
    9        1.597   3.539   0.000   5.136
   10        1.597   3.539   0.000   5.136
   11        1.594   3.555   0.000   5.149
   12        1.594   3.555   0.000   5.149
   13        1.597   3.549   0.000   5.145
   14        1.598   3.544   0.000   5.143
   15        1.599   3.543   0.000   5.142
   16        1.596   3.550   0.000   5.146
   17        1.597   3.544   0.000   5.140
   18        1.597   3.544   0.000   5.140
   19        1.595   3.548   0.000   5.143
   20        1.595   3.548   0.000   5.143
   21        1.602   3.527   0.000   5.130
   22        1.598   3.544   0.000   5.141
   23        1.599   3.536   0.000   5.135
   24        1.598   3.539   0.000   5.137
   25        1.596   3.561   0.000   5.156
   26        1.596   3.561   0.000   5.156
   27        1.596   3.546   0.000   5.142
   28        1.596   3.546   0.000   5.142
   29        1.598   3.544   0.000   5.143
   30        1.597   3.549   0.000   5.145
   31        1.596   3.550   0.000   5.146
   32        1.599   3.543   0.000   5.142
   33        1.599   3.540   0.000   5.139
   34        1.599   3.540   0.000   5.139
   35        1.596   3.552   0.000   5.148
   36        1.595   3.562   0.000   5.157
   37        1.590   3.592   0.000   5.182
   38        1.590   3.592   0.000   5.182
   39        1.599   3.537   0.000   5.136
   40        1.604   3.523   0.000   5.127
   41        1.600   3.541   0.000   5.140
   42        1.600   3.541   0.000   5.140
   43        1.595   3.562   0.000   5.157
   44        1.596   3.552   0.000   5.148
   45        1.596   3.557   0.000   5.153
   46        1.596   3.557   0.000   5.153
   47        1.604   3.523   0.000   5.127
   48        1.599   3.537   0.000   5.136
   49        0.975   1.144   0.373   2.492
   50        0.966   1.106   0.359   2.431
   51        0.971   1.148   0.382   2.502
   52        0.962   1.116   0.370   2.448
   53        0.975   1.144   0.373   2.492
   54        0.970   1.134   0.374   2.478
   55        0.971   1.148   0.382   2.502
   56        0.974   1.144   0.372   2.489
   57        0.071   0.129   0.000   0.200
   58        0.071   0.133   0.000   0.204
   59        0.056   0.102   0.000   0.158
   60        0.058   0.104   0.000   0.161
   61        0.071   0.129   0.000   0.200
   62        0.071   0.133   0.000   0.204
   63        0.056   0.100   0.000   0.156
   64        0.064   0.115   0.000   0.179
   65        0.061   0.110   0.000   0.171
   66        0.061   0.112   0.000   0.173
   67        0.056   0.100   0.000   0.156
   68        0.064   0.115   0.000   0.179
   69        0.061   0.110   0.000   0.171
   70        0.061   0.112   0.000   0.173
   71        0.056   0.102   0.000   0.158
   72        0.058   0.104   0.000   0.161
   73        0.062   0.110   0.000   0.172
   74        0.060   0.107   0.000   0.167
   75        0.068   0.126   0.000   0.195
   76        0.060   0.107   0.000   0.167
   77        0.068   0.126   0.000   0.195
   78        0.060   0.107   0.000   0.168
   79        0.062   0.110   0.000   0.172
   80        0.060   0.107   0.000   0.168
--------------------------------------------------
tot         85.913 182.103   2.985 271.002
 
    CHARGE:  cpu time    0.2220: real time    0.2221
    FORLOC:  cpu time    0.0570: real time    0.0570
    FORNL :  cpu time    1.4218: real time    1.4225
    STRESS:  cpu time    7.0207: real time    7.0521
    FORCOR:  cpu time    0.1679: real time    0.1679
    FORHAR:  cpu time    0.0815: real time    0.0815
    MIXING:  cpu time    0.0038: real time    0.0038
    OFIELD:  cpu time    0.0000: real time    0.0000

  FORCE on cell =-STRESS in cart. coord.  units (eV):
  Direction    XX          YY          ZZ          XY          YZ          ZX
  --------------------------------------------------------------------------------------
  Alpha Z   310.04809   310.04809   310.04809
  Ewald   -5108.29020 -5450.83181 -4854.49752    -0.00000    -0.00000    24.58411
  Hartree  1543.60369  1336.60846  1692.91117    -0.00000     0.00000     8.62535
  E(xc)   -1403.66631 -1403.56785 -1405.03311     0.00000     0.00000     0.16721
  Local   -4335.81652 -3801.13459 -4721.23690    -0.00000     0.00000   -34.58435
  n-local  4203.95246  4200.72597  4209.54646     0.00000    -0.00000     0.23189
  augment  -980.06510  -981.07300  -979.48311    -0.00000    -0.00000    -0.08111
  Kinetic  5771.10784  5792.13352  5748.34234     0.00001     0.00000     1.19373
  Fock        0.00000     0.00000     0.00000     0.00000     0.00000     0.00000
  -------------------------------------------------------------------------------------
  Total       0.87394     2.90881     0.59742     0.00000     0.00000     0.13683
  in kB       0.75235     2.50412     0.51430     0.00000     0.00000     0.11779
  external pressure =        1.26 kB  Pullay stress =        0.00 kB


 VOLUME and BASIS-vectors are now :
 -----------------------------------------------------------------------------
  energy-cutoff  :      520.00
  volume of cell :     1861.11
      direct lattice vectors                 reciprocal lattice vectors
    13.459017910  0.000000000 -0.273085008     0.074898101  0.000000000  0.029495859
     0.000000000 11.456071877  0.000000000     0.000000000  0.087289955  0.000000000
    -4.791777054  0.000000000 12.167640179     0.001680979  0.000000000  0.082847197

  length of vectors
    13.461788088 11.456071877 13.077178399     0.080496777  0.087289955  0.082864248


 FORCES acting on ions
    electron-ion (+dipol)            ewald-force                    non-local-force                 convergence-correction
 -----------------------------------------------------------------------------------------------
   0.141E+02 0.743E+01 0.545E+02   -.142E+02 -.721E+01 -.559E+02   0.158E+00 -.216E+00 0.143E+01   0.556E-02 0.264E-02 -.174E-01
   -.141E+02 0.743E+01 -.545E+02   0.142E+02 -.721E+01 0.559E+02   -.158E+00 -.216E+00 -.143E+01   -.556E-02 0.264E-02 0.174E-01
   0.215E+02 -.725E+02 0.144E+01   -.226E+02 0.746E+02 -.307E+01   0.107E+01 -.212E+01 0.162E+01   -.108E-01 0.522E-02 0.150E-01
   -.215E+02 -.725E+02 -.144E+01   0.226E+02 0.746E+02 0.307E+01   -.107E+01 -.212E+01 -.162E+01   0.108E-01 0.522E-02 -.150E-01
   -.406E+02 -.419E+02 0.365E+01   0.414E+02 0.437E+02 -.280E+01   -.815E+00 -.184E+01 -.824E+00   -.425E-03 -.599E-02 -.175E-01
   -.326E+02 -.390E+02 0.276E+02   0.336E+02 0.399E+02 -.291E+02   -.989E+00 -.925E+00 0.145E+01   0.531E-02 -.359E-02 0.579E-02
   0.225E+02 0.762E+02 -.443E+01   -.236E+02 -.783E+02 0.357E+01   0.113E+01 0.211E+01 0.840E+00   -.722E-02 -.383E-02 0.155E-01
   -.251E+02 0.514E+02 0.158E+02   0.259E+02 -.537E+02 -.146E+02   -.858E+00 0.230E+01 -.123E+01   0.139E-01 0.335E-02 -.111E-01
   -.181E+02 -.447E+02 -.255E+01   0.188E+02 0.465E+02 0.344E+01   -.721E+00 -.176E+01 -.884E+00   0.157E-01 0.519E-02 -.945E-02
   0.181E+02 -.447E+02 0.255E+01   -.188E+02 0.465E+02 -.344E+01   0.721E+00 -.176E+01 0.884E+00   -.157E-01 0.519E-02 0.945E-02
   0.217E+02 0.269E+02 -.683E+01   -.222E+02 -.280E+02 0.659E+01   0.500E+00 0.109E+01 0.224E+00   0.424E-02 0.114E-01 0.150E-01
   -.217E+02 0.269E+02 0.683E+01   0.222E+02 -.280E+02 -.659E+01   -.500E+00 0.109E+01 -.224E+00   -.424E-02 0.114E-01 -.150E-01
   -.265E+02 -.403E+02 0.409E+01   0.276E+02 0.419E+02 -.362E+01   -.118E+01 -.159E+01 -.462E+00   -.166E-02 -.699E-02 -.413E-02
   0.197E+02 -.431E+02 -.149E+02   -.207E+02 0.450E+02 0.141E+02   0.986E+00 -.198E+01 0.789E+00   -.974E-03 0.368E-02 0.970E-02
   0.240E+02 0.587E+02 0.115E+01   -.250E+02 -.610E+02 -.176E+01   0.107E+01 0.228E+01 0.606E+00   -.429E-03 0.331E-03 0.527E-02
   -.158E+02 0.471E+02 -.221E+01   0.166E+02 -.486E+02 0.307E+01   -.777E+00 0.152E+01 -.840E+00   0.214E-02 0.347E-02 -.190E-01
   -.248E+02 -.489E+02 0.725E+01   0.258E+02 0.505E+02 -.636E+01   -.978E+00 -.156E+01 -.879E+00   0.398E-03 -.380E-02 -.928E-02
   0.248E+02 -.489E+02 -.725E+01   -.258E+02 0.505E+02 0.636E+01   0.978E+00 -.156E+01 0.879E+00   -.398E-03 -.380E-02 0.928E-02
   0.188E+02 0.363E+02 -.695E+01   -.196E+02 -.378E+02 0.631E+01   0.785E+00 0.145E+01 0.631E+00   -.576E-02 0.651E-02 0.965E-02
   -.188E+02 0.363E+02 0.695E+01   0.196E+02 -.378E+02 -.631E+01   -.785E+00 0.145E+01 -.631E+00   0.576E-02 0.651E-02 -.965E-02
   0.326E+02 -.390E+02 -.276E+02   -.336E+02 0.399E+02 0.291E+02   0.989E+00 -.925E+00 -.145E+01   -.531E-02 -.359E-02 -.579E-02
   0.406E+02 -.419E+02 -.365E+01   -.414E+02 0.437E+02 0.280E+01   0.815E+00 -.184E+01 0.824E+00   0.425E-03 -.599E-02 0.175E-01
   0.251E+02 0.514E+02 -.158E+02   -.259E+02 -.537E+02 0.146E+02   0.858E+00 0.230E+01 0.123E+01   -.139E-01 0.335E-02 0.111E-01
   -.225E+02 0.762E+02 0.443E+01   0.236E+02 -.783E+02 -.357E+01   -.113E+01 0.211E+01 -.840E+00   0.722E-02 -.383E-02 -.155E-01
   -.253E+02 -.371E+02 0.545E+01   0.256E+02 0.385E+02 -.493E+01   -.300E+00 -.147E+01 -.521E+00   0.720E-02 -.120E-01 -.789E-02
   0.253E+02 -.371E+02 -.545E+01   -.256E+02 0.385E+02 0.493E+01   0.300E+00 -.147E+01 0.521E+00   -.720E-02 -.120E-01 0.789E-02
   0.247E+02 0.291E+02 -.746E+01   -.256E+02 -.303E+02 0.650E+01   0.851E+00 0.119E+01 0.947E+00   -.171E-02 -.180E-02 0.129E-01
   -.247E+02 0.291E+02 0.746E+01   0.256E+02 -.303E+02 -.650E+01   -.851E+00 0.119E+01 -.947E+00   0.171E-02 -.180E-02 -.129E-01
   -.197E+02 -.431E+02 0.149E+02   0.207E+02 0.450E+02 -.141E+02   -.986E+00 -.198E+01 -.789E+00   0.974E-03 0.368E-02 -.970E-02
   0.265E+02 -.403E+02 -.409E+01   -.276E+02 0.419E+02 0.362E+01   0.118E+01 -.159E+01 0.462E+00   0.166E-02 -.699E-02 0.413E-02
   0.158E+02 0.471E+02 0.221E+01   -.166E+02 -.486E+02 -.307E+01   0.777E+00 0.152E+01 0.840E+00   -.214E-02 0.347E-02 0.190E-01
   -.240E+02 0.587E+02 -.115E+01   0.250E+02 -.610E+02 0.176E+01   -.107E+01 0.228E+01 -.606E+00   0.429E-03 0.331E-03 -.527E-02
   -.533E+02 -.119E+02 0.870E+00   0.559E+02 0.119E+02 -.133E+01   -.261E+01 -.323E-01 0.460E+00   -.393E-02 0.980E-02 0.371E-04
   0.533E+02 -.119E+02 -.870E+00   -.559E+02 0.119E+02 0.133E+01   0.261E+01 -.323E-01 -.460E+00   0.393E-02 0.980E-02 -.371E-04
   -.445E+02 0.760E+01 -.182E+02   0.460E+02 -.784E+01 0.175E+02   -.151E+01 0.233E+00 0.726E+00   0.209E-02 0.464E-02 0.246E-02
   0.386E+02 0.692E+01 0.131E+02   -.400E+02 -.663E+01 -.128E+02   0.143E+01 -.288E+00 -.330E+00   -.275E-03 -.266E-02 -.234E-02
   0.873E+01 -.301E+02 -.570E+02   -.875E+01 0.301E+02 0.586E+02   0.225E-01 -.166E-01 -.156E+01   0.346E-02 0.344E-02 -.223E-02
   -.873E+01 -.301E+02 0.570E+02   0.875E+01 0.301E+02 -.586E+02   -.225E-01 -.166E-01 0.156E+01   -.346E-02 0.344E-02 0.223E-02
   -.560E+02 0.510E+01 -.172E+02   0.587E+02 -.475E+01 0.165E+02   -.263E+01 -.339E+00 0.756E+00   0.924E-02 -.911E-02 -.644E-02
   0.159E+02 0.632E+02 -.213E+02   -.166E+02 -.649E+02 0.227E+02   0.756E+00 0.159E+01 -.139E+01   -.567E-02 0.936E-02 -.727E-02
   -.545E+02 -.469E+01 -.143E+02   0.573E+02 0.455E+01 0.140E+02   -.273E+01 0.142E+00 0.301E+00   -.611E-02 0.214E-02 -.144E-02
   0.545E+02 -.469E+01 0.143E+02   -.573E+02 0.455E+01 -.140E+02   0.273E+01 0.142E+00 -.301E+00   0.611E-02 0.214E-02 0.144E-02
   -.386E+02 0.692E+01 -.131E+02   0.400E+02 -.663E+01 0.128E+02   -.143E+01 -.288E+00 0.330E+00   0.275E-03 -.266E-02 0.234E-02
   0.445E+02 0.760E+01 0.182E+02   -.460E+02 -.784E+01 -.175E+02   0.151E+01 0.233E+00 -.726E+00   -.209E-02 0.464E-02 -.246E-02
   -.540E+02 -.823E+01 -.242E+02   0.558E+02 0.820E+01 0.238E+02   -.178E+01 0.373E-01 0.413E+00   -.532E-02 -.851E-03 0.369E-02
   0.540E+02 -.823E+01 0.242E+02   -.558E+02 0.820E+01 -.238E+02   0.178E+01 0.373E-01 -.413E+00   0.532E-02 -.851E-03 -.369E-02
   -.159E+02 0.632E+02 0.213E+02   0.166E+02 -.649E+02 -.227E+02   -.756E+00 0.159E+01 0.139E+01   0.567E-02 0.936E-02 0.727E-02
   0.560E+02 0.510E+01 0.172E+02   -.587E+02 -.475E+01 -.165E+02   0.263E+01 -.339E+00 -.756E+00   -.924E-02 -.911E-02 0.644E-02
   -.769E+01 0.951E+01 0.132E+01   0.931E+01 -.105E+02 -.123E+01   -.161E+01 0.948E+00 -.926E-01   0.591E-03 0.241E-03 -.240E-03
   -.489E-06 -.213E+01 -.940E-06   -.357E-05 0.328E+01 -.691E-05   0.000E+00 -.115E+01 0.000E+00   -.549E-09 -.409E-03 -.706E-08
   -.290E+01 0.313E+01 -.361E+01   0.257E+01 -.329E+01 0.268E+01   0.320E+00 0.163E+00 0.920E+00   0.165E-03 -.870E-03 0.931E-03
   0.642E-06 -.257E+01 0.981E-06   0.470E-05 0.297E+01 0.720E-05   0.000E+00 -.397E+00 0.000E+00   -.954E-09 0.990E-03 0.517E-08
   0.769E+01 0.951E+01 -.132E+01   -.931E+01 -.105E+02 0.123E+01   0.161E+01 0.948E+00 0.926E-01   -.591E-03 0.241E-03 0.240E-03
   -.497E-06 0.274E+01 -.894E-06   -.364E-05 -.255E+01 -.657E-05   0.000E+00 -.185E+00 0.000E+00   0.174E-08 -.582E-03 -.566E-08
   0.290E+01 0.313E+01 0.361E+01   -.257E+01 -.329E+01 -.268E+01   -.320E+00 0.163E+00 -.920E+00   -.165E-03 -.870E-03 -.931E-03
   0.223E-07 -.126E+02 0.147E-05   0.127E-06 0.139E+02 0.109E-04   0.000E+00 -.133E+01 0.000E+00   -.107E-08 0.970E-03 0.676E-08
   0.564E+00 -.875E+01 0.270E+01   -.181E+00 0.784E+01 -.337E+01   -.388E+00 0.905E+00 0.681E+00   -.110E-03 -.202E-04 -.143E-03
   0.326E+01 0.479E+01 -.394E+00   -.278E+01 -.360E+01 0.597E+00   -.485E+00 -.119E+01 -.202E+00   0.521E-04 0.257E-03 -.310E-04
   -.309E+01 -.410E+01 -.468E+01   0.296E+01 0.401E+01 0.461E+01   0.136E+00 0.972E-01 0.762E-01   0.153E-04 0.215E-03 0.203E-04
   -.800E+00 0.104E+02 -.121E+01   0.750E+00 -.968E+01 0.121E+01   0.521E-01 -.684E+00 -.403E-02   0.129E-03 -.100E-03 -.268E-04
   -.564E+00 -.875E+01 -.270E+01   0.181E+00 0.784E+01 0.337E+01   0.388E+00 0.905E+00 -.681E+00   0.110E-03 -.202E-04 0.143E-03
   -.326E+01 0.479E+01 0.394E+00   0.278E+01 -.360E+01 -.597E+00   0.485E+00 -.119E+01 0.202E+00   -.521E-04 0.257E-03 0.310E-04
   0.184E+01 -.553E+01 -.344E+01   -.149E+01 0.516E+01 0.301E+01   -.344E+00 0.370E+00 0.431E+00   0.401E-04 -.297E-03 0.445E-04
   -.677E+00 -.658E-01 -.473E-01   0.145E+00 -.740E+00 -.257E+00   0.534E+00 0.807E+00 0.308E+00   -.182E-03 -.190E-03 0.105E-03
   -.127E+01 -.812E+01 0.794E+00   0.133E+01 0.745E+01 -.716E+00   -.559E-01 0.666E+00 -.766E-01   0.237E-03 -.219E-03 -.117E-03
   0.396E+00 0.815E+01 -.672E+00   -.420E+00 -.737E+01 0.655E+00   0.238E-01 -.783E+00 0.175E-01   0.550E-04 0.364E-03 -.512E-04
   -.184E+01 -.553E+01 0.344E+01   0.149E+01 0.516E+01 -.301E+01   0.344E+00 0.370E+00 -.431E+00   -.401E-04 -.297E-03 -.445E-04
   0.677E+00 -.658E-01 0.473E-01   -.145E+00 -.740E+00 0.257E+00   -.534E+00 0.807E+00 -.308E+00   0.182E-03 -.190E-03 -.105E-03
   0.127E+01 -.812E+01 -.794E+00   -.133E+01 0.745E+01 0.716E+00   0.559E-01 0.666E+00 0.766E-01   -.237E-03 -.219E-03 0.117E-03
   -.396E+00 0.815E+01 0.672E+00   0.420E+00 -.737E+01 -.655E+00   -.238E-01 -.783E+00 -.175E-01   -.550E-04 0.364E-03 0.512E-04
   0.309E+01 -.410E+01 0.468E+01   -.296E+01 0.401E+01 -.461E+01   -.136E+00 0.972E-01 -.762E-01   -.153E-04 0.215E-03 -.203E-04
   0.800E+00 0.104E+02 0.121E+01   -.750E+00 -.968E+01 -.121E+01   -.521E-01 -.684E+00 0.403E-02   -.129E-03 -.100E-03 0.268E-04
   0.462E+01 0.450E+01 0.435E+01   -.493E+01 -.341E+01 -.449E+01   0.315E+00 -.109E+01 0.143E+00   -.474E-04 -.111E-03 -.145E-03
   -.268E+01 0.599E+00 -.501E+00   0.260E+01 -.652E+00 0.391E+00   0.820E-01 0.535E-01 0.110E+00   0.325E-03 -.109E-03 -.681E-04
   -.543E+01 -.167E+01 -.411E+00   0.442E+01 0.173E+01 0.768E+00   0.101E+01 -.568E-01 -.355E+00   0.116E-03 0.302E-03 0.438E-04
   0.268E+01 0.599E+00 0.501E+00   -.260E+01 -.652E+00 -.391E+00   -.820E-01 0.535E-01 -.110E+00   -.325E-03 -.109E-03 0.681E-04
   0.543E+01 -.167E+01 0.411E+00   -.442E+01 0.173E+01 -.768E+00   -.101E+01 -.568E-01 0.355E+00   -.116E-03 0.302E-03 -.438E-04
   0.935E+00 0.188E+01 0.316E+00   -.801E+00 -.220E+01 0.215E-01   -.133E+00 0.318E+00 -.336E+00   -.106E-03 -.952E-04 0.128E-03
   -.462E+01 0.450E+01 -.435E+01   0.493E+01 -.341E+01 0.449E+01   -.315E+00 -.109E+01 -.143E+00   0.474E-04 -.111E-03 0.145E-03
   -.935E+00 0.188E+01 -.316E+00   0.801E+00 -.220E+01 -.215E-01   0.133E+00 0.318E+00 0.336E+00   0.106E-03 -.952E-04 -.128E-03
 -----------------------------------------------------------------------------------------------
   0.274E-03 0.235E+01 -.697E-03   -.118E-12 -.120E-12 -.347E-13   -.167E-14 -.239E+01 -.167E-15   -.432E-08 0.408E-01 -.678E-09
 
 
 POSITION                                       TOTAL-FORCE (eV/Angst)
 -----------------------------------------------------------------------------------
      1.01586      1.92018      1.89826        -0.003269     -0.002123      0.002463
      7.65138      1.92018      9.99629         0.003269     -0.002123     -0.002463
      7.76975      9.34271     10.18811         0.002055     -0.001265      0.000402
      0.89749      9.34271      1.70644        -0.002055     -0.001265     -0.000402
      4.19862      7.45976      1.64154         0.000477      0.002238      0.004380
     -2.65654      7.54687     10.69675         0.003266      0.000924     -0.003198
     -2.33811      4.07409     10.45207        -0.000568     -0.000599     -0.001706
      4.23447      3.97404      1.60079        -0.005477      0.000232      0.001071
     -1.48216      1.72645      7.74156        -0.004327     -0.001184      0.001534
     10.14940      1.72645      4.15299         0.004327     -0.001184     -0.001534
     10.07887      9.61890      4.16214        -0.001494     -0.003879     -0.002258
     -1.41163      9.61890      7.73242         0.001494     -0.003879      0.002258
      2.05034      7.46578      7.58935         0.002304      0.001111     -0.000306
     -0.04118      7.40372      4.47260         0.000217     -0.004773      0.001556
     -0.08928      3.92848      4.63195         0.000270      0.000596      0.003290
      1.88186      4.01528      7.76284         0.001228     -0.000899      0.004780
      7.67888      1.76013      1.49586         0.001825      0.000578      0.001434
      0.98836      1.76013     10.39870        -0.001825      0.000578     -0.001434
      1.04498      9.71548     10.39214         0.000737      0.000289     -0.000533
      7.62226      9.71548      1.50242        -0.000737      0.000289      0.000533
     11.32378      7.54687      1.19780        -0.003266      0.000924      0.003198
      4.46862      7.45976     10.25301        -0.000477      0.002238     -0.004380
      4.43277      3.97404     10.29377         0.005477      0.000232     -0.001071
     11.00535      4.07409      1.44248         0.000568     -0.000599      0.001706
      5.08663      1.80747      7.57722        -0.003269      0.001859     -0.000407
      3.58061      1.80747      4.31734         0.003269      0.001859      0.000407
      3.37766      9.75449      4.19950         0.000202      0.003756     -0.000575
      5.28958      9.75449      7.69506        -0.000202      0.003756      0.000575
      8.70842      7.40372      7.42195        -0.000217     -0.004773     -0.001556
      6.61690      7.46578      4.30520        -0.002304      0.001111      0.000306
      6.78538      4.01528      4.13172        -0.001228     -0.000899     -0.004780
      8.75652      3.92848      7.26260        -0.000270      0.000596     -0.003290
     -0.33532     11.33412      4.64554         0.005400     -0.005597      0.002398
      9.00256     11.33412      7.24902        -0.005400     -0.005597     -0.002398
      2.98464      5.62636      4.50852         0.005669     -0.001925     -0.000513
     -1.12401      5.88543      7.61563        -0.004439      0.002041      0.000670
     -2.53669     11.33134     10.68569         0.000440     -0.001154      0.006030
     11.20393     11.33134      1.20887        -0.000440     -0.001154     -0.006030
      0.60209      5.97213     10.65944        -0.000265      0.006214      0.003369
      1.12246      5.82557      1.32520        -0.006413     -0.009120      0.006084
      6.45113     11.37300      4.58924         0.007423     -0.000305     -0.000250
      2.21611     11.37300      7.30531        -0.007423     -0.000305      0.000250
      9.79125      5.88543      4.27892         0.004439      0.002041     -0.000670
      5.68260      5.62636      7.38604        -0.005669     -0.001925      0.000513
      4.01350      0.03631     10.53348         0.005422      0.002081     -0.000891
      4.65374      0.03631      1.36108        -0.005422      0.002081      0.000891
      7.54479      5.82557     10.56935         0.006413     -0.009120     -0.006084
      8.06515      5.97213      1.23511         0.000265      0.006214     -0.003369
      3.41450      5.68640     -0.01019         0.006241     -0.001610     -0.003464
     -2.39589      0.01161      6.08382         0.000000     -0.002581     -0.000000
      0.95340      5.71010      6.07063        -0.005521      0.000240     -0.005481
      6.72951      0.03980     -0.13654         0.000000     -0.001001     -0.000000
      5.25274      5.68640     11.90475        -0.006241     -0.001610      0.003464
      4.33362     11.39862      5.94728         0.000000     -0.000490     -0.000000
      7.71384      5.71010      5.82393         0.005521      0.000240      0.005481
      0.00000      7.78511      0.00000         0.000000      0.017585     -0.000000
     12.36984      1.40240      2.47241        -0.004025     -0.000821      0.005639
     -3.43096      9.87491      9.15278        -0.002042     -0.004187      0.001239
      2.10973      7.61651      3.14432         0.000161      0.001987      0.002917
     -0.20571      4.12085      9.14939         0.002556      0.005351      0.004301
     -3.70259      1.40240      9.42215         0.004025     -0.000821     -0.005639
     12.09820      9.87491      2.74178         0.002042     -0.004187     -0.001239
     -0.00942      7.75804      8.87153         0.000352      0.003188     -0.002294
      1.99410      3.48375      3.27759         0.001733      0.001067      0.004644
      5.71831      1.64909      3.01942         0.002536      0.001734      0.001687
      3.11624      9.80362      8.97730         0.000554      0.000272      0.001194
      8.67666      7.75804      3.02302        -0.000352      0.003188      0.002294
      6.67314      3.48375      8.61696        -0.001733      0.001067     -0.004644
      2.94893      1.64909      8.87514        -0.002536      0.001734     -0.001687
      5.55100      9.80362      2.91726        -0.000554      0.000272     -0.001194
      6.55751      7.61651      8.75023        -0.000161      0.001987     -0.002917
      8.87295      4.12085      2.74516        -0.002556      0.005351     -0.004301
      2.44765      0.29769      2.63033         0.003537     -0.001243      0.001333
      5.20852      5.70016      3.12568        -0.001044      0.000341     -0.000899
     -0.66705      0.01558      9.35121        -0.001979     -0.001301      0.001181
      3.45872      5.70016      8.76887         0.001044      0.000341      0.000899
      9.33429      0.01558      2.54335         0.001979     -0.001301     -0.001181
     12.04621      5.57750      3.16443         0.000246     -0.000869      0.002131
      6.21959      0.29769      9.26422        -0.003537     -0.001243     -0.001333
     -3.37897      5.57750      8.73013        -0.000246     -0.000869     -0.002131
 -----------------------------------------------------------------------------------
    total drift:                                0.000274     -0.001374     -0.000697


--------------------------------------------------------------------------------------------------------



  FREE ENERGIE OF THE ION-ELECTRON SYSTEM (eV)
  ---------------------------------------------------
  free  energy   TOTEN  =      -274.09653986 eV

  energy  without entropy=     -274.09653986  energy(sigma->0) =     -274.09653986
 
 d Force = 0.2606082E-03[ 0.206E-03, 0.315E-03]  d Energy = 0.2698406E-03-0.923E-05
 d Force =-0.2695881E+00[-0.271E+00,-0.268E+00]  d Ewald  =-0.2695881E+00 0.275E-07


--------------------------------------------------------------------------------------------------------


    POTLOK:  cpu time    0.2897: real time    0.2899


--------------------------------------------------------------------------------------------------------


 Conjugate gradient step on ions:
 trial-energy change:   -0.000270  1 .order   -0.000261   -0.000315   -0.000206
  (g-gl).g = 0.204E-03      g.g   = 0.215E-03  gl.gl    = 0.253E-03
 g(Force)  = 0.215E-03   g(Stress)= 0.000E+00 ortho     = 0.651E-05
 gamma     =   0.80401
 trial     =   1.43203
 opt step  =   4.12075  (harmonic =   4.12075) maximal distance =0.00369434
 next E    =  -274.096724   (d E  =  -0.00045)


--------------------------------------------------------------------------------------------------------


    WAVPRE:  cpu time    0.0690: real time    0.0711
    FEWALD:  cpu time    0.0017: real time    0.0017
    ORTHCH:  cpu time    0.9005: real time    0.9007
     LOOP+:  cpu time   29.2825: real time   29.3900


--------------------------------------- Iteration      7(   1)  ---------------------------------------


    POTLOK:  cpu time    0.1312: real time    0.1338
    SETDIJ:  cpu time    0.1580: real time    0.1581
     EDDAV:  cpu time    5.8156: real time    5.8223
       DOS:  cpu time    0.0003: real time    0.0003
    CHARGE:  cpu time    0.2238: real time    0.2240
    MIXING:  cpu time    0.0040: real time    0.0040
    --------------------------------------------
      LOOP:  cpu time    6.3329: real time    6.3426

 eigenvalue-minimisations  :   560
 total energy-change (2. order) : 0.7946912E-03  (-0.2557993E-01)
 number of electron     383.9999993 magnetization 
 augmentation part      -49.4159892 magnetization 

 Broyden mixing:
  rms(total) = 0.93265E-02    rms(broyden)= 0.93253E-02
  rms(prec ) = 0.10589E-01
  weight for this iteration     100.00

 Free energy of the ion-electron system (eV)
  ---------------------------------------------------
  alpha Z        PSCENC =       310.04809462
  Ewald energy   TEWEN  =    -15413.01710386
  -Hartree energ DENC   =     -4573.63140656
  -exchange      EXHF   =         0.00000000
  -V(xc)+E(xc)   XCENC  =       447.04567144
  PAW double counting   =     11244.33198110   -10653.62411657
  entropy T*S    EENTRO =        -0.00000000
  eigenvalues    EBANDS =     -1859.50802372
  atomic energy  EATOM  =     20224.25915541
  Solvation  Ediel_sol  =         0.00000000
  ---------------------------------------------------
  free energy    TOTEN  =      -274.09574814 eV

  energy without entropy =     -274.09574814  energy(sigma->0) =     -274.09574814


--------------------------------------------------------------------------------------------------------




--------------------------------------- Iteration      7(   2)  ---------------------------------------


    POTLOK:  cpu time    0.1301: real time    0.1353
    SETDIJ:  cpu time    0.1570: real time    0.1571
     EDDAV:  cpu time    5.8108: real time    5.8178
       DOS:  cpu time    0.0003: real time    0.0003
    CHARGE:  cpu time    0.2234: real time    0.2238
    MIXING:  cpu time    0.0040: real time    0.0040
    --------------------------------------------
      LOOP:  cpu time    6.3255: real time    6.3382

 eigenvalue-minimisations  :   560
 total energy-change (2. order) :-0.1058577E-02  (-0.1148220E-02)
 number of electron     383.9999993 magnetization 
 augmentation part      -49.4163143 magnetization 

 Broyden mixing:
  rms(total) = 0.30282E-02    rms(broyden)= 0.30234E-02
  rms(prec ) = 0.39955E-02
  weight for this iteration     100.00

 eigenvalues of (default mixing * dielectric matrix)
  average eigenvalue GAMMA=   0.8984
  0.8984

 Free energy of the ion-electron system (eV)
  ---------------------------------------------------
  alpha Z        PSCENC =       310.04809462
  Ewald energy   TEWEN  =    -15413.01710386
  -Hartree energ DENC   =     -4573.58779390
  -exchange      EXHF   =         0.00000000
  -V(xc)+E(xc)   XCENC  =       447.04311916
  PAW double counting   =     11244.20348219   -10653.49412094
  entropy T*S    EENTRO =        -0.00000000
  eigenvalues    EBANDS =     -1859.55163939
  atomic energy  EATOM  =     20224.25915541
  Solvation  Ediel_sol  =         0.00000000
  ---------------------------------------------------
  free energy    TOTEN  =      -274.09680672 eV

  energy without entropy =     -274.09680672  energy(sigma->0) =     -274.09680672


--------------------------------------------------------------------------------------------------------




--------------------------------------- Iteration      7(   3)  ---------------------------------------


    POTLOK:  cpu time    0.1305: real time    0.1349
    SETDIJ:  cpu time    0.1571: real time    0.1572
     EDDAV:  cpu time    6.1468: real time    6.1548
       DOS:  cpu time    0.0001: real time    0.0001
    CHARGE:  cpu time    0.2257: real time    0.2259
    MIXING:  cpu time    0.0047: real time    0.0047
    --------------------------------------------
      LOOP:  cpu time    6.6649: real time    6.6777

 eigenvalue-minimisations  :   600
 total energy-change (2. order) : 0.9004954E-05  (-0.1760952E-04)
 number of electron     383.9999993 magnetization 
 augmentation part      -49.4167624 magnetization 

 Broyden mixing:
  rms(total) = 0.25448E-02    rms(broyden)= 0.25447E-02
  rms(prec ) = 0.33469E-02
  weight for this iteration     100.00

 eigenvalues of (default mixing * dielectric matrix)
  average eigenvalue GAMMA=   1.9433
  1.0395  2.8470

 Free energy of the ion-electron system (eV)
  ---------------------------------------------------
  alpha Z        PSCENC =       310.04809462
  Ewald energy   TEWEN  =    -15413.01710386
  -Hartree energ DENC   =     -4573.58099507
  -exchange      EXHF   =         0.00000000
  -V(xc)+E(xc)   XCENC  =       447.04244087
  PAW double counting   =     11244.14922892   -10653.43895341
  entropy T*S    EENTRO =        -0.00000000
  eigenvalues    EBANDS =     -1859.55866518
  atomic energy  EATOM  =     20224.25915541
  Solvation  Ediel_sol  =         0.00000000
  ---------------------------------------------------
  free energy    TOTEN  =      -274.09679772 eV

  energy without entropy =     -274.09679772  energy(sigma->0) =     -274.09679772


--------------------------------------------------------------------------------------------------------




--------------------------------------- Iteration      7(   4)  ---------------------------------------


    POTLOK:  cpu time    0.1334: real time    0.1385
    SETDIJ:  cpu time    0.1572: real time    0.1573
     EDDAV:  cpu time    5.4854: real time    5.4919
       DOS:  cpu time    0.0002: real time    0.0002
    CHARGE:  cpu time    0.2233: real time    0.2235
    MIXING:  cpu time    0.0047: real time    0.0047
    --------------------------------------------
      LOOP:  cpu time    6.0042: real time    6.0160

 eigenvalue-minimisations  :   520
 total energy-change (2. order) : 0.2838840E-04  (-0.1480593E-04)
 number of electron     383.9999993 magnetization 
 augmentation part      -49.4173151 magnetization 

 Broyden mixing:
  rms(total) = 0.84296E-03    rms(broyden)= 0.84295E-03
  rms(prec ) = 0.10579E-02
  weight for this iteration     100.00

 eigenvalues of (default mixing * dielectric matrix)
  average eigenvalue GAMMA=   1.7342
  3.3383  0.9322  0.9322

 Free energy of the ion-electron system (eV)
  ---------------------------------------------------
  alpha Z        PSCENC =       310.04809462
  Ewald energy   TEWEN  =    -15413.01710386
  -Hartree energ DENC   =     -4573.56830829
  -exchange      EXHF   =         0.00000000
  -V(xc)+E(xc)   XCENC  =       447.04013035
  PAW double counting   =     11244.00649182   -10653.29374567
  entropy T*S    EENTRO =        -0.00000000
  eigenvalues    EBANDS =     -1859.57148369
  atomic energy  EATOM  =     20224.25915541
  Solvation  Ediel_sol  =         0.00000000
  ---------------------------------------------------
  free energy    TOTEN  =      -274.09676933 eV

  energy without entropy =     -274.09676933  energy(sigma->0) =     -274.09676933


--------------------------------------------------------------------------------------------------------




--------------------------------------- Iteration      7(   5)  ---------------------------------------


    POTLOK:  cpu time    0.1305: real time    0.1349
    SETDIJ:  cpu time    0.1570: real time    0.1570
     EDDAV:  cpu time    4.8270: real time    4.8365
       DOS:  cpu time    0.0001: real time    0.0001
    --------------------------------------------
      LOOP:  cpu time    5.1145: real time    5.1286

 eigenvalue-minimisations  :   440
 total energy-change (2. order) :-0.1707849E-05  (-0.2707315E-05)
 number of electron     383.9999993 magnetization 
 augmentation part      -49.4173151 magnetization 

 Free energy of the ion-electron system (eV)
  ---------------------------------------------------
  alpha Z        PSCENC =       310.04809462
  Ewald energy   TEWEN  =    -15413.01710386
  -Hartree energ DENC   =     -4573.56662127
  -exchange      EXHF   =         0.00000000
  -V(xc)+E(xc)   XCENC  =       447.03969911
  PAW double counting   =     11243.98784585   -10653.27472543
  entropy T*S    EENTRO =        -0.00000000
  eigenvalues    EBANDS =     -1859.57311546
  atomic energy  EATOM  =     20224.25915541
  Solvation  Ediel_sol  =         0.00000000
  ---------------------------------------------------
  free energy    TOTEN  =      -274.09677104 eV

  energy without entropy =     -274.09677104  energy(sigma->0) =     -274.09677104


--------------------------------------------------------------------------------------------------------




 average (electrostatic) potential at core
  the test charge radii are     0.9406  1.4837  0.9748
  (the norm of the test charge is              1.0000)
       1 -92.6834       2 -92.6834       3 -94.2240       4 -94.2240       5 -94.0861
       6 -94.7289       7 -94.1124       8 -94.0427       9 -93.5680      10 -93.5679
      11 -93.6627      12 -93.6627      13 -94.1609      14 -94.0166      15 -94.0115
      16 -94.1593      17 -93.9885      18 -93.9885      19 -93.9787      20 -93.9787
      21 -94.7289      22 -94.0861      23 -94.0427      24 -94.1124      25 -93.9960
      26 -93.9959      27 -94.0154      28 -94.0154      29 -94.0166      30 -94.1609
      31 -94.1593      32 -94.0116      33 -93.7043      34 -93.7043      35 -94.0649
      36 -94.1302      37 -92.5416      38 -92.5416      39 -94.0707      40 -94.6593
      41 -93.9825      42 -93.9825      43 -94.1302      44 -94.0649      45 -94.0837
      46 -94.0837      47 -94.6593      48 -94.0707      49 -41.9820      50 -41.5414
      51 -41.8888      52 -41.9137      53 -41.9820      54 -41.8095      55 -41.8888
      56 -42.2150      57 -27.8264      58 -28.1161      59 -28.7373      60 -28.7728
      61 -27.8265      62 -28.1161      63 -28.9002      64 -28.3772      65 -28.6604
      66 -28.6605      67 -28.9001      68 -28.3772      69 -28.6604      70 -28.6605
      71 -28.7373      72 -28.7728      73 -28.5198      74 -28.7511      75 -27.9702
      76 -28.7512      77 -27.9702      78 -28.8409      79 -28.5199      80 -28.8409
 
 
 
 E-fermi :   0.4207     XC(G=0):  -7.8732     alpha+bet : -7.9187


 k-point     1 :       0.0000    0.0000    0.0000
  band No.  band energies     occupation 
      1     -14.6465      2.00000
      2     -14.3834      2.00000
      3     -14.1698      2.00000
      4     -14.1405      2.00000
      5     -14.0844      2.00000
      6     -14.0574      2.00000
      7     -14.0410      2.00000
      8     -13.9188      2.00000
      9     -13.8704      2.00000
     10     -13.8330      2.00000
     11     -13.8066      2.00000
     12     -13.7722      2.00000
     13     -13.7449      2.00000
     14     -13.7316      2.00000
     15     -13.7198      2.00000
     16     -13.6785      2.00000
     17     -13.6738      2.00000
     18     -13.6608      2.00000
     19     -13.6457      2.00000
     20     -13.5989      2.00000
     21     -13.5952      2.00000
     22     -13.5823      2.00000
     23     -13.5789      2.00000
     24     -13.5537      2.00000
     25     -13.5414      2.00000
     26     -13.4975      2.00000
     27     -13.4908      2.00000
     28     -13.4582      2.00000
     29     -13.4521      2.00000
     30     -13.4443      2.00000
     31     -13.4103      2.00000
     32     -13.4066      2.00000
     33     -13.4009      2.00000
     34     -13.3798      2.00000
     35     -13.3565      2.00000
     36     -13.3412      2.00000
     37     -13.3183      2.00000
     38     -13.3023      2.00000
     39     -13.2862      2.00000
     40     -13.2758      2.00000
     41     -13.1715      2.00000
     42     -13.1173      2.00000
     43     -12.9599      2.00000
     44     -12.9291      2.00000
     45     -12.2913      2.00000
     46     -12.2684      2.00000
     47     -12.1485      2.00000
     48     -12.1439      2.00000
     49      -5.5983      2.00000
     50      -5.3073      2.00000
     51      -5.2577      2.00000
     52      -5.1470      2.00000
     53      -5.1211      2.00000
     54      -5.0907      2.00000
     55      -4.9920      2.00000
     56      -4.6692      2.00000
     57      -3.8658      2.00000
     58      -3.6795      2.00000
     59      -3.6779      2.00000
     60      -3.4798      2.00000
     61      -3.4215      2.00000
     62      -3.3921      2.00000
     63      -3.3900      2.00000
     64      -3.3635      2.00000
     65      -3.2695      2.00000
     66      -3.2470      2.00000
     67      -3.2270      2.00000
     68      -3.2260      2.00000
     69      -3.1779      2.00000
     70      -3.0642      2.00000
     71      -3.0402      2.00000
     72      -3.0099      2.00000
     73      -3.0050      2.00000
     74      -2.9694      2.00000
     75      -2.9568      2.00000
     76      -2.8987      2.00000
     77      -2.8222      2.00000
     78      -2.7587      2.00000
     79      -2.7391      2.00000
     80      -2.7326      2.00000
     81      -2.6551      2.00000
     82      -2.6204      2.00000
     83      -2.6147      2.00000
     84      -2.5931      2.00000
     85      -2.5651      2.00000
     86      -2.5530      2.00000
     87      -2.5024      2.00000
     88      -2.4543      2.00000
     89      -2.4134      2.00000
     90      -2.3895      2.00000
     91      -2.3670      2.00000
     92      -2.3502      2.00000
     93      -2.3227      2.00000
     94      -2.3134      2.00000
     95      -2.3056      2.00000
     96      -2.3049      2.00000
     97      -2.2536      2.00000
     98      -2.2201      2.00000
     99      -2.2172      2.00000
    100      -2.1922      2.00000
    101      -2.1622      2.00000
    102      -2.1428      2.00000
    103      -2.1215      2.00000
    104      -2.0653      2.00000
    105      -2.0172      2.00000
    106      -2.0031      2.00000
    107      -1.9694      2.00000
    108      -1.9521      2.00000
    109      -1.9307      2.00000
    110      -1.9112      2.00000
    111      -1.9038      2.00000
    112      -1.8892      2.00000
    113      -1.8556      2.00000
    114      -1.8243      2.00000
    115      -1.8228      2.00000
    116      -1.7929      2.00000
    117      -1.7742      2.00000
    118      -1.7200      2.00000
    119      -1.7022      2.00000
    120      -1.6857      2.00000
    121      -1.6746      2.00000
    122      -1.6745      2.00000
    123      -1.6470      2.00000
    124      -1.6421      2.00000
    125      -1.6104      2.00000
    126      -1.6074      2.00000
    127      -1.5807      2.00000
    128      -1.5575      2.00000
    129      -1.5512      2.00000
    130      -1.5264      2.00000
    131      -1.5193      2.00000
    132      -1.5129      2.00000
    133      -1.4875      2.00000
    134      -1.4628      2.00000
    135      -1.4465      2.00000
    136      -1.4393      2.00000
    137      -1.4322      2.00000
    138      -1.3898      2.00000
    139      -1.3897      2.00000
    140      -1.3801      2.00000
    141      -1.3503      2.00000
    142      -1.3485      2.00000
    143      -1.3325      2.00000
    144      -1.3309      2.00000
    145      -1.3079      2.00000
    146      -1.2967      2.00000
    147      -1.2821      2.00000
    148      -1.2658      2.00000
    149      -1.2526      2.00000
    150      -1.2429      2.00000
    151      -1.2265      2.00000
    152      -1.2088      2.00000
    153      -1.1954      2.00000
    154      -1.1800      2.00000
    155      -1.1789      2.00000
    156      -1.1570      2.00000
    157      -1.1490      2.00000
    158      -1.1173      2.00000
    159      -1.0948      2.00000
    160      -1.0813      2.00000
    161      -1.0807      2.00000
    162      -1.0742      2.00000
    163      -1.0587      2.00000
    164      -1.0542      2.00000
    165      -1.0121      2.00000
    166      -0.9929      2.00000
    167      -0.9807      2.00000
    168      -0.9727      2.00000
    169      -0.9458      2.00000
    170      -0.9303      2.00000
    171      -0.9204      2.00000
    172      -0.9058      2.00000
    173      -0.8807      2.00000
    174      -0.8619      2.00000
    175      -0.8328      2.00000
    176      -0.8016      2.00000
    177      -0.7952      2.00000
    178      -0.7603      2.00000
    179      -0.7545      2.00000
    180      -0.6729      2.00000
    181      -0.6715      2.00000
    182      -0.6030      2.00000
    183      -0.5970      2.00000
    184      -0.5262      2.00000
    185      -0.3657      2.00000
    186      -0.3557      2.00000
    187      -0.3410      2.00000
    188      -0.2754      2.00000
    189      -0.2433      2.00000
    190      -0.2273      2.00000
    191      -0.1635      2.00000
    192      -0.0661      2.00000
    193       2.4800      0.00000
    194       2.7995      0.00000
    195       2.8171      0.00000
    196       2.9347      0.00000
    197       3.1325      0.00000
    198       3.1460      0.00000
    199       3.2200      0.00000
    200       3.4250      0.00000
    201       5.6745      0.00000
    202       5.8128      0.00000
    203       5.9130      0.00000
    204       5.9625      0.00000
    205       6.0635      0.00000
    206       6.0745      0.00000
    207       6.1345      0.00000
    208       6.1878      0.00000
    209       6.2646      0.00000
    210       6.3709      0.00000
    211       6.4903      0.00000
    212       6.5368      0.00000
    213       6.6329      0.00000
    214       6.6404      0.00000
    215       6.6969      0.00000
    216       6.7415      0.00000
    217       6.8230      0.00000
    218       6.8362      0.00000
    219       6.9205      0.00000
    220       6.9712      0.00000
    221       6.9883      0.00000
    222       7.0500      0.00000
    223       7.1789      0.00000
    224       7.2355      0.00000
    225       7.2674      0.00000
    226       7.3642      0.00000
    227       7.4439      0.00000
    228       7.4615      0.00000
    229       7.5404      0.00000
    230       7.5604      0.00000
    231       7.6022      0.00000
    232       7.6973      0.00000
    233       7.7857      0.00000
    234       7.8055      0.00000
    235       7.8216      0.00000
    236       7.8783      0.00000
    237       7.8865      0.00000
    238       7.9051      0.00000
    239       7.9847      0.00000
    240       8.0069      0.00000


--------------------------------------------------------------------------------------------------------


 soft charge-density along one line, spin component           1
         0         1         2         3         4         5         6         7         8         9
 total charge-density along one line
 
 pseudopotential strength for first ion, spin component:           1
 47.404  -0.016  -0.003   0.019   0.003  -0.000   0.000   0.000
 -0.016   0.019  -0.000   0.000   0.000  -0.000   0.000   0.000
 -0.003  -0.000   9.108   0.000  -0.000   0.002  -0.000   0.000
  0.019   0.000   0.000   9.105   0.000  -0.000   0.002  -0.000
  0.003   0.000  -0.000   0.000   9.109   0.000  -0.000   0.002
 -0.000  -0.000   0.002  -0.000   0.000   0.035   0.000   0.000
  0.000   0.000  -0.000   0.002  -0.000   0.000   0.035   0.000
  0.000   0.000   0.000  -0.000   0.002   0.000   0.000   0.035
 total augmentation occupancy for first ion, spin component:           1
  1.911   0.427   0.009  -0.060  -0.010   0.011  -0.066  -0.012
  0.427   0.249  -0.054   0.335   0.056   0.013  -0.099  -0.023
  0.009  -0.054   1.759  -0.001   0.003  -0.398  -0.007   0.002
 -0.060   0.335  -0.001   1.797  -0.001  -0.007  -0.330  -0.010
 -0.010   0.056   0.003  -0.001   1.751   0.002  -0.010  -0.422
  0.011   0.013  -0.398  -0.007   0.002   0.101   0.003  -0.000
 -0.066  -0.099  -0.007  -0.330  -0.010   0.003   0.078   0.006
 -0.012  -0.023   0.002  -0.010  -0.422  -0.000   0.006   0.114


------------------------ aborting loop because EDIFF is reached ----------------------------------------


 


 total charge     
 
# of ion       s       p       d       tot
------------------------------------------
    1        1.589   3.591   0.000   5.180
    2        1.589   3.591   0.000   5.180
    3        1.599   3.535   0.000   5.134
    4        1.599   3.535   0.000   5.134
    5        1.598   3.544   0.000   5.141
    6        1.602   3.527   0.000   5.130
    7        1.598   3.539   0.000   5.137
    8        1.599   3.536   0.000   5.135
    9        1.597   3.539   0.000   5.136
   10        1.597   3.539   0.000   5.136
   11        1.594   3.555   0.000   5.149
   12        1.594   3.555   0.000   5.149
   13        1.597   3.549   0.000   5.145
   14        1.598   3.544   0.000   5.143
   15        1.599   3.543   0.000   5.142
   16        1.596   3.550   0.000   5.146
   17        1.597   3.544   0.000   5.140
   18        1.597   3.544   0.000   5.140
   19        1.595   3.548   0.000   5.143
   20        1.595   3.548   0.000   5.143
   21        1.602   3.527   0.000   5.130
   22        1.598   3.544   0.000   5.141
   23        1.599   3.536   0.000   5.135
   24        1.598   3.539   0.000   5.137
   25        1.596   3.561   0.000   5.156
   26        1.596   3.561   0.000   5.156
   27        1.596   3.546   0.000   5.142
   28        1.596   3.546   0.000   5.142
   29        1.598   3.544   0.000   5.143
   30        1.597   3.549   0.000   5.145
   31        1.596   3.550   0.000   5.146
   32        1.599   3.543   0.000   5.142
   33        1.599   3.539   0.000   5.139
   34        1.599   3.539   0.000   5.139
   35        1.596   3.552   0.000   5.148
   36        1.595   3.562   0.000   5.157
   37        1.590   3.591   0.000   5.182
   38        1.590   3.591   0.000   5.182
   39        1.599   3.537   0.000   5.136
   40        1.604   3.522   0.000   5.126
   41        1.600   3.540   0.000   5.140
   42        1.600   3.540   0.000   5.140
   43        1.595   3.562   0.000   5.157
   44        1.596   3.552   0.000   5.148
   45        1.596   3.557   0.000   5.153
   46        1.596   3.557   0.000   5.153
   47        1.604   3.522   0.000   5.126
   48        1.599   3.537   0.000   5.136
   49        0.975   1.144   0.372   2.492
   50        0.966   1.105   0.359   2.430
   51        0.971   1.148   0.382   2.500
   52        0.961   1.115   0.369   2.446
   53        0.975   1.144   0.372   2.492
   54        0.969   1.133   0.374   2.476
   55        0.971   1.148   0.382   2.500
   56        0.974   1.143   0.371   2.488
   57        0.071   0.129   0.000   0.200
   58        0.071   0.133   0.000   0.204
   59        0.056   0.102   0.000   0.158
   60        0.058   0.104   0.000   0.162
   61        0.071   0.129   0.000   0.200
   62        0.071   0.133   0.000   0.204
   63        0.056   0.101   0.000   0.157
   64        0.064   0.115   0.000   0.179
   65        0.061   0.110   0.000   0.171
   66        0.061   0.112   0.000   0.173
   67        0.056   0.101   0.000   0.157
   68        0.064   0.115   0.000   0.179
   69        0.061   0.110   0.000   0.171
   70        0.061   0.112   0.000   0.173
   71        0.056   0.102   0.000   0.158
   72        0.058   0.104   0.000   0.162
   73        0.062   0.110   0.000   0.172
   74        0.060   0.107   0.000   0.167
   75        0.068   0.126   0.000   0.195
   76        0.060   0.107   0.000   0.167
   77        0.068   0.126   0.000   0.195
   78        0.060   0.108   0.000   0.168
   79        0.062   0.110   0.000   0.172
   80        0.060   0.108   0.000   0.168
--------------------------------------------------
tot         85.914 182.097   2.982 270.993
 
    CHARGE:  cpu time    0.2217: real time    0.2218
    FORLOC:  cpu time    0.0566: real time    0.0566
    FORNL :  cpu time    1.4194: real time    1.4201
    STRESS:  cpu time    7.0539: real time    7.0601
    FORCOR:  cpu time    0.1679: real time    0.1679
    FORHAR:  cpu time    0.0813: real time    0.0813
    MIXING:  cpu time    0.0040: real time    0.0040
    OFIELD:  cpu time    0.0000: real time    0.0000

  FORCE on cell =-STRESS in cart. coord.  units (eV):
  Direction    XX          YY          ZZ          XY          YZ          ZX
  --------------------------------------------------------------------------------------
  Alpha Z   310.04809   310.04809   310.04809
  Ewald   -5107.11251 -5450.35098 -4855.64339    -0.00000    -0.00000    23.56808
  Hartree  1544.10576  1337.37231  1692.08491    -0.00000     0.00000     8.43553
  E(xc)   -1403.65205 -1403.53677 -1405.01758     0.00000     0.00000     0.17888
  Local   -4337.39869 -3802.45219 -4719.17487    -0.00000     0.00000   -33.51545
  n-local  4203.96330  4200.56798  4209.47629    -0.00000     0.00000     0.12232
  augment  -980.08249  -981.08475  -979.49338    -0.00000     0.00000    -0.07928
  Kinetic  5771.03116  5792.28677  5748.25025     0.00001     0.00000     1.36776
  Fock        0.00000     0.00000     0.00000     0.00000     0.00000     0.00000
  -------------------------------------------------------------------------------------
  Total       0.90258     2.85046     0.53031     0.00000     0.00000     0.07783
  in kB       0.77700     2.45389     0.45653     0.00000     0.00000     0.06700
  external pressure =        1.23 kB  Pullay stress =        0.00 kB


 VOLUME and BASIS-vectors are now :
 -----------------------------------------------------------------------------
  energy-cutoff  :      520.00
  volume of cell :     1861.11
      direct lattice vectors                 reciprocal lattice vectors
    13.459017910  0.000000000 -0.273085008     0.074898101  0.000000000  0.029495859
     0.000000000 11.456071877  0.000000000     0.000000000  0.087289955  0.000000000
    -4.791777054  0.000000000 12.167640179     0.001680979  0.000000000  0.082847197

  length of vectors
    13.461788088 11.456071877 13.077178399     0.080496777  0.087289955  0.082864248


 FORCES acting on ions
    electron-ion (+dipol)            ewald-force                    non-local-force                 convergence-correction
 -----------------------------------------------------------------------------------------------
   0.141E+02 0.744E+01 0.546E+02   -.143E+02 -.722E+01 -.561E+02   0.154E+00 -.221E+00 0.144E+01   -.416E-03 0.462E-03 0.684E-02
   -.141E+02 0.744E+01 -.546E+02   0.143E+02 -.722E+01 0.561E+02   -.154E+00 -.221E+00 -.144E+01   0.416E-03 0.462E-03 -.684E-02
   0.216E+02 -.725E+02 0.133E+01   -.227E+02 0.746E+02 -.294E+01   0.107E+01 -.212E+01 0.162E+01   0.274E-02 -.949E-03 -.652E-02
   -.216E+02 -.725E+02 -.133E+01   0.227E+02 0.746E+02 0.294E+01   -.107E+01 -.212E+01 -.162E+01   -.274E-02 -.949E-03 0.652E-02
   -.406E+02 -.418E+02 0.379E+01   0.414E+02 0.436E+02 -.298E+01   -.815E+00 -.184E+01 -.816E+00   0.515E-03 0.269E-02 0.679E-02
   -.326E+02 -.389E+02 0.274E+02   0.336E+02 0.398E+02 -.289E+02   -.994E+00 -.921E+00 0.146E+01   -.997E-03 0.172E-02 -.579E-02
   0.225E+02 0.762E+02 -.459E+01   -.236E+02 -.783E+02 0.376E+01   0.113E+01 0.211E+01 0.834E+00   0.751E-03 0.126E-02 -.543E-02
   -.251E+02 0.514E+02 0.160E+02   0.260E+02 -.537E+02 -.148E+02   -.860E+00 0.230E+01 -.123E+01   -.462E-02 -.131E-02 0.664E-02
   -.181E+02 -.447E+02 -.247E+01   0.188E+02 0.465E+02 0.335E+01   -.731E+00 -.176E+01 -.882E+00   -.373E-02 0.513E-04 0.399E-02
   0.181E+02 -.447E+02 0.247E+01   -.188E+02 0.465E+02 -.335E+01   0.731E+00 -.176E+01 0.882E+00   0.373E-02 0.513E-04 -.399E-02
   0.216E+02 0.268E+02 -.693E+01   -.221E+02 -.279E+02 0.672E+01   0.496E+00 0.108E+01 0.218E+00   -.177E-02 -.496E-02 -.630E-02
   -.216E+02 0.268E+02 0.693E+01   0.221E+02 -.279E+02 -.672E+01   -.496E+00 0.108E+01 -.218E+00   0.177E-02 -.496E-02 0.630E-02
   -.264E+02 -.401E+02 0.420E+01   0.276E+02 0.417E+02 -.374E+01   -.118E+01 -.159E+01 -.463E+00   0.732E-03 0.414E-02 0.349E-02
   0.197E+02 -.430E+02 -.150E+02   -.206E+02 0.450E+02 0.143E+02   0.984E+00 -.198E+01 0.790E+00   -.219E-03 0.278E-03 -.518E-02
   0.240E+02 0.588E+02 0.100E+01   -.250E+02 -.610E+02 -.160E+01   0.107E+01 0.228E+01 0.612E+00   0.411E-03 0.365E-03 -.542E-02
   -.157E+02 0.470E+02 -.216E+01   0.165E+02 -.486E+02 0.298E+01   -.778E+00 0.152E+01 -.831E+00   0.159E-02 -.228E-02 0.533E-02
   -.248E+02 -.488E+02 0.739E+01   0.258E+02 0.504E+02 -.651E+01   -.979E+00 -.156E+01 -.879E+00   0.176E-03 0.224E-02 0.514E-02
   0.248E+02 -.488E+02 -.739E+01   -.258E+02 0.504E+02 0.651E+01   0.979E+00 -.156E+01 0.879E+00   -.176E-03 0.224E-02 -.514E-02
   0.187E+02 0.362E+02 -.710E+01   -.195E+02 -.376E+02 0.648E+01   0.787E+00 0.145E+01 0.629E+00   0.622E-03 -.463E-02 -.563E-02
   -.187E+02 0.362E+02 0.710E+01   0.195E+02 -.376E+02 -.648E+01   -.787E+00 0.145E+01 -.629E+00   -.622E-03 -.463E-02 0.563E-02
   0.326E+02 -.389E+02 -.274E+02   -.336E+02 0.398E+02 0.289E+02   0.994E+00 -.921E+00 -.146E+01   0.997E-03 0.172E-02 0.579E-02
   0.406E+02 -.418E+02 -.379E+01   -.414E+02 0.436E+02 0.298E+01   0.815E+00 -.184E+01 0.816E+00   -.515E-03 0.269E-02 -.679E-02
   0.251E+02 0.514E+02 -.160E+02   -.260E+02 -.537E+02 0.148E+02   0.860E+00 0.230E+01 0.123E+01   0.462E-02 -.131E-02 -.664E-02
   -.225E+02 0.762E+02 0.459E+01   0.236E+02 -.783E+02 -.376E+01   -.113E+01 0.211E+01 -.834E+00   -.751E-03 0.126E-02 0.543E-02
   -.252E+02 -.369E+02 0.559E+01   0.255E+02 0.384E+02 -.509E+01   -.304E+00 -.146E+01 -.521E+00   -.412E-03 0.538E-02 0.510E-02
   0.252E+02 -.369E+02 -.560E+01   -.255E+02 0.384E+02 0.508E+01   0.304E+00 -.146E+01 0.521E+00   0.412E-03 0.538E-02 -.510E-02
   0.247E+02 0.290E+02 -.757E+01   -.256E+02 -.302E+02 0.664E+01   0.848E+00 0.119E+01 0.945E+00   -.363E-03 -.215E-02 -.591E-02
   -.247E+02 0.290E+02 0.757E+01   0.256E+02 -.302E+02 -.664E+01   -.848E+00 0.119E+01 -.945E+00   0.363E-03 -.215E-02 0.591E-02
   -.197E+02 -.430E+02 0.150E+02   0.206E+02 0.450E+02 -.143E+02   -.984E+00 -.198E+01 -.790E+00   0.219E-03 0.278E-03 0.518E-02
   0.264E+02 -.401E+02 -.420E+01   -.276E+02 0.417E+02 0.374E+01   0.118E+01 -.159E+01 0.463E+00   -.732E-03 0.414E-02 -.349E-02
   0.157E+02 0.470E+02 0.216E+01   -.165E+02 -.486E+02 -.298E+01   0.778E+00 0.152E+01 0.831E+00   -.159E-02 -.228E-02 -.533E-02
   -.240E+02 0.588E+02 -.100E+01   0.250E+02 -.610E+02 0.160E+01   -.107E+01 0.228E+01 -.612E+00   -.411E-03 0.365E-03 0.542E-02
   -.532E+02 -.120E+02 0.741E+00   0.558E+02 0.120E+02 -.120E+01   -.261E+01 -.411E-01 0.467E+00   0.231E-02 -.226E-02 -.372E-02
   0.532E+02 -.120E+02 -.742E+00   -.558E+02 0.120E+02 0.120E+01   0.261E+01 -.411E-01 -.467E+00   -.231E-02 -.226E-02 0.372E-02
   -.445E+02 0.759E+01 -.184E+02   0.460E+02 -.782E+01 0.177E+02   -.152E+01 0.230E+00 0.734E+00   -.558E-03 -.147E-02 -.468E-02
   0.385E+02 0.694E+01 0.132E+02   -.400E+02 -.666E+01 -.129E+02   0.144E+01 -.285E+00 -.334E+00   -.159E-02 0.184E-02 0.291E-02
   0.869E+01 -.302E+02 -.571E+02   -.871E+01 0.302E+02 0.587E+02   0.211E-01 -.208E-01 -.156E+01   -.189E-02 -.193E-02 -.180E-02
   -.869E+01 -.302E+02 0.571E+02   0.871E+01 0.302E+02 -.587E+02   -.211E-01 -.208E-01 0.156E+01   0.189E-02 -.193E-02 0.180E-02
   -.561E+02 0.511E+01 -.173E+02   0.588E+02 -.477E+01 0.165E+02   -.264E+01 -.335E+00 0.764E+00   -.321E-02 0.301E-02 -.122E-02
   0.160E+02 0.633E+02 -.211E+02   -.168E+02 -.648E+02 0.225E+02   0.762E+00 0.159E+01 -.139E+01   0.201E-02 -.281E-02 0.610E-02
   -.545E+02 -.475E+01 -.143E+02   0.572E+02 0.461E+01 0.140E+02   -.273E+01 0.143E+00 0.305E+00   0.225E-02 -.162E-02 -.223E-02
   0.545E+02 -.475E+01 0.143E+02   -.572E+02 0.461E+01 -.140E+02   0.273E+01 0.143E+00 -.305E+00   -.225E-02 -.162E-02 0.223E-02
   -.385E+02 0.694E+01 -.132E+02   0.400E+02 -.666E+01 0.129E+02   -.144E+01 -.285E+00 0.334E+00   0.159E-02 0.184E-02 -.291E-02
   0.445E+02 0.759E+01 0.184E+02   -.460E+02 -.782E+01 -.177E+02   0.152E+01 0.230E+00 -.734E+00   0.558E-03 -.147E-02 0.468E-02
   -.540E+02 -.827E+01 -.243E+02   0.558E+02 0.824E+01 0.239E+02   -.178E+01 0.383E-01 0.415E+00   0.271E-02 -.805E-03 -.437E-02
   0.540E+02 -.827E+01 0.243E+02   -.558E+02 0.824E+01 -.239E+02   0.178E+01 0.383E-01 -.415E+00   -.271E-02 -.805E-03 0.437E-02
   -.160E+02 0.633E+02 0.211E+02   0.168E+02 -.648E+02 -.225E+02   -.762E+00 0.159E+01 0.139E+01   -.201E-02 -.281E-02 -.610E-02
   0.561E+02 0.511E+01 0.173E+02   -.588E+02 -.477E+01 -.165E+02   0.264E+01 -.335E+00 -.764E+00   0.321E-02 0.301E-02 0.122E-02
   -.770E+01 0.952E+01 0.128E+01   0.931E+01 -.105E+02 -.120E+01   -.162E+01 0.945E+00 -.799E-01   -.130E-03 0.172E-03 -.187E-04
   -.489E-06 -.211E+01 -.937E-06   -.358E-05 0.326E+01 -.690E-05   0.000E+00 -.116E+01 0.000E+00   -.372E-09 -.154E-03 -.456E-08
   -.294E+01 0.316E+01 -.369E+01   0.261E+01 -.332E+01 0.275E+01   0.330E+00 0.163E+00 0.936E+00   -.209E-03 0.334E-03 -.762E-03
   0.642E-06 -.259E+01 0.980E-06   0.470E-05 0.298E+01 0.719E-05   0.000E+00 -.399E+00 0.000E+00   -.662E-09 -.439E-03 0.339E-08
   0.770E+01 0.952E+01 -.128E+01   -.931E+01 -.105E+02 0.120E+01   0.162E+01 0.945E+00 0.799E-01   0.130E-03 0.172E-03 0.188E-04
   -.498E-06 0.273E+01 -.893E-06   -.365E-05 -.254E+01 -.656E-05   0.000E+00 -.183E+00 0.000E+00   0.112E-08 -.138E-03 -.373E-08
   0.294E+01 0.316E+01 0.369E+01   -.261E+01 -.332E+01 -.275E+01   -.330E+00 0.163E+00 -.936E+00   0.209E-03 0.334E-03 0.762E-03
   0.235E-07 -.125E+02 0.146E-05   0.137E-06 0.139E+02 0.109E-04   0.000E+00 -.136E+01 0.000E+00   -.724E-09 0.714E-03 0.472E-08
   0.557E+00 -.874E+01 0.271E+01   -.174E+00 0.784E+01 -.339E+01   -.388E+00 0.904E+00 0.681E+00   0.106E-03 -.443E-04 0.709E-04
   0.324E+01 0.475E+01 -.383E+00   -.275E+01 -.356E+01 0.586E+00   -.483E+00 -.119E+01 -.202E+00   -.803E-04 -.159E-03 0.232E-04
   -.310E+01 -.409E+01 -.469E+01   0.297E+01 0.400E+01 0.461E+01   0.136E+00 0.961E-01 0.771E-01   -.411E-04 0.799E-05 0.118E-04
   -.816E+00 0.104E+02 -.121E+01   0.766E+00 -.968E+01 0.122E+01   0.526E-01 -.683E+00 -.393E-02   -.103E-03 0.747E-04 -.273E-04
   -.557E+00 -.874E+01 -.271E+01   0.174E+00 0.784E+01 0.339E+01   0.388E+00 0.904E+00 -.681E+00   -.106E-03 -.443E-04 -.709E-04
   -.324E+01 0.475E+01 0.383E+00   0.275E+01 -.356E+01 -.586E+00   0.483E+00 -.119E+01 0.202E+00   0.803E-04 -.159E-03 -.232E-04
   0.183E+01 -.550E+01 -.345E+01   -.148E+01 0.513E+01 0.301E+01   -.343E+00 0.367E+00 0.433E+00   -.913E-04 0.129E-03 0.274E-05
   -.659E+00 -.495E-01 -.502E-01   0.129E+00 -.755E+00 -.254E+00   0.533E+00 0.805E+00 0.307E+00   0.600E-04 0.874E-04 -.166E-04
   -.128E+01 -.809E+01 0.798E+00   0.134E+01 0.743E+01 -.719E+00   -.557E-01 0.663E+00 -.768E-01   -.151E-03 0.643E-04 0.895E-04
   0.397E+00 0.813E+01 -.669E+00   -.421E+00 -.734E+01 0.654E+00   0.241E-01 -.781E+00 0.161E-01   0.211E-04 -.196E-03 -.497E-04
   -.183E+01 -.550E+01 0.345E+01   0.148E+01 0.513E+01 -.301E+01   0.343E+00 0.367E+00 -.433E+00   0.913E-04 0.129E-03 -.274E-05
   0.659E+00 -.495E-01 0.502E-01   -.129E+00 -.755E+00 0.254E+00   -.533E+00 0.805E+00 -.307E+00   -.600E-04 0.875E-04 0.166E-04
   0.128E+01 -.809E+01 -.798E+00   -.134E+01 0.743E+01 0.719E+00   0.557E-01 0.663E+00 0.768E-01   0.151E-03 0.643E-04 -.895E-04
   -.397E+00 0.813E+01 0.669E+00   0.421E+00 -.734E+01 -.654E+00   -.241E-01 -.781E+00 -.161E-01   -.211E-04 -.196E-03 0.497E-04
   0.310E+01 -.409E+01 0.469E+01   -.297E+01 0.400E+01 -.461E+01   -.136E+00 0.961E-01 -.771E-01   0.411E-04 0.799E-05 -.118E-04
   0.816E+00 0.104E+02 0.121E+01   -.766E+00 -.968E+01 -.122E+01   -.526E-01 -.683E+00 0.393E-02   0.103E-03 0.747E-04 0.273E-04
   0.463E+01 0.449E+01 0.436E+01   -.494E+01 -.340E+01 -.450E+01   0.314E+00 -.109E+01 0.142E+00   -.428E-04 -.346E-04 0.854E-04
   -.270E+01 0.610E+00 -.501E+00   0.262E+01 -.662E+00 0.389E+00   0.829E-01 0.522E-01 0.111E+00   -.194E-03 0.767E-04 0.291E-04
   -.544E+01 -.168E+01 -.431E+00   0.443E+01 0.173E+01 0.788E+00   0.101E+01 -.569E-01 -.353E+00   -.792E-04 -.203E-03 -.832E-04
   0.270E+01 0.610E+00 0.501E+00   -.262E+01 -.662E+00 -.389E+00   -.829E-01 0.522E-01 -.111E+00   0.194E-03 0.767E-04 -.291E-04
   0.544E+01 -.168E+01 0.431E+00   -.443E+01 0.173E+01 -.788E+00   -.101E+01 -.569E-01 0.353E+00   0.792E-04 -.203E-03 0.832E-04
   0.939E+00 0.188E+01 0.315E+00   -.805E+00 -.220E+01 0.221E-01   -.134E+00 0.319E+00 -.335E+00   0.619E-04 0.125E-03 -.167E-04
   -.463E+01 0.449E+01 -.436E+01   0.494E+01 -.340E+01 0.450E+01   -.314E+00 -.109E+01 -.142E+00   0.428E-04 -.346E-04 -.854E-04
   -.939E+00 0.188E+01 -.315E+00   0.805E+00 -.220E+01 -.221E-01   0.134E+00 0.319E+00 0.335E+00   -.619E-04 0.125E-03 0.167E-04
 -----------------------------------------------------------------------------------------------
   0.274E-03 0.249E+01 -.697E-03   -.381E-13 0.351E-13 0.115E-13   -.105E-14 -.248E+01 0.389E-15   -.198E-08 -.666E-02 -.369E-08
 
 
 POSITION                                       TOTAL-FORCE (eV/Angst)
 -----------------------------------------------------------------------------------
      1.01505      1.91978      1.90043        -0.002587     -0.003074      0.000552
      7.65219      1.91978      9.99412         0.002587     -0.003074     -0.000552
      7.77115      9.34185     10.18626        -0.001105      0.002504      0.001681
      0.89609      9.34185      1.70829         0.001105      0.002504     -0.001681
      4.19839      7.46029      1.64347        -0.001357     -0.002255     -0.001658
     -2.65716      7.54712     10.69642         0.003181     -0.000102      0.001336
     -2.33685      4.07465     10.45009        -0.000901     -0.000250      0.002746
      4.23242      3.97355      1.60187        -0.005347      0.005236     -0.005024
     -1.48414      1.72582      7.74279        -0.004621     -0.002877     -0.001799
     10.15138      1.72582      4.15177         0.004621     -0.002877      0.001799
     10.07871      9.61792      4.16057         0.000490     -0.000525      0.002036
     -1.41147      9.61792      7.73399        -0.000490     -0.000525     -0.002036
      2.05067      7.46640      7.58955        -0.000715     -0.005050     -0.005153
     -0.04099      7.40294      4.47150        -0.000110     -0.004651      0.004993
     -0.08931      3.92832      4.63172         0.000208     -0.000319      0.007032
      1.88123      4.01531      7.76525        -0.000600      0.003807     -0.000741
      7.67890      1.76039      1.49675         0.001134     -0.002935     -0.002980
      0.98834      1.76039     10.39780        -0.001134     -0.002935      0.002980
      1.04579      9.71509     10.39123         0.001830      0.005366      0.004714
      7.62145      9.71509      1.50333        -0.001830      0.005366     -0.004714
     11.32440      7.54712      1.19814        -0.003181     -0.000102     -0.001336
      4.46885      7.46029     10.25108         0.001357     -0.002255      0.001658
      4.43483      3.97355     10.29269         0.005347      0.005236      0.005024
     11.00409      4.07465      1.44446         0.000901     -0.000250     -0.002746
      5.08535      1.80878      7.57786        -0.005202     -0.003953     -0.005967
      3.58189      1.80878      4.31669         0.005202     -0.003953      0.005967
      3.37804      9.75503      4.19809         0.000228      0.007071      0.004166
      5.28920      9.75503      7.69646        -0.000228      0.007071     -0.004166
      8.70823      7.40294      7.42305         0.000110     -0.004651     -0.004993
      6.61657      7.46640      4.30501         0.000715     -0.005050      0.005153
      6.78601      4.01531      4.12931         0.000600      0.003807      0.000741
      8.75655      3.92832      7.26283        -0.000208     -0.000319     -0.007032
     -0.33487     11.33253      4.64599         0.001746     -0.006093      0.005831
      9.00211     11.33253      7.24857        -0.001746     -0.006093     -0.005831
      2.98445      5.62581      4.50861         0.004871     -0.001731      0.003701
     -1.12392      5.88569      7.61570        -0.002763      0.002340     -0.001461
     -2.53714     11.33101     10.68641         0.001236     -0.001514      0.005178
     11.20438     11.33101      1.20815        -0.001236     -0.001514     -0.005178
      0.60122      5.97373     10.66060         0.005143      0.006904      0.001714
      1.12305      5.82437      1.32576        -0.009354     -0.000924     -0.002562
      6.45193     11.37274      4.58972         0.002221      0.000313      0.002523
      2.21531     11.37274      7.30484        -0.002221      0.000313     -0.002523
      9.79116      5.88569      4.27885         0.002763      0.002340      0.001461
      5.68279      5.62581      7.38594        -0.004871     -0.001731     -0.003701
      4.01393      0.03676     10.53340         0.001163      0.002690      0.002633
      4.65331      0.03676      1.36115        -0.001163      0.002690     -0.002633
      7.54419      5.82437     10.56880         0.009354     -0.000924      0.002562
      8.06602      5.97373      1.23395        -0.005143      0.006904     -0.001714
      3.41420      5.68687     -0.01021         0.001516     -0.004134      0.006658
     -2.39589      0.01078      6.08382         0.000000     -0.004492     -0.000000
      0.95307      5.70978      6.07045        -0.000972      0.001892      0.000509
      6.72951      0.04018     -0.13654         0.000000     -0.003269     -0.000000
      5.25304      5.68687     11.90477        -0.001516     -0.004134     -0.006658
      4.33362     11.39874      5.94728         0.000000      0.003788     -0.000000
      7.71417      5.70978      5.82411         0.000972      0.001892     -0.000509
     -0.00000      7.78656      0.00000         0.000000     -0.001626     -0.000000
     12.36896      1.40182      2.47336        -0.004400     -0.000831      0.005704
     -3.43133      9.87418      9.15325        -0.000785     -0.003463      0.001384
      2.10987      7.61681      3.14490         0.000753      0.000013      0.002724
     -0.20497      4.12236      9.15030         0.002488      0.005351      0.004362
     -3.70172      1.40182      9.42119         0.004400     -0.000831     -0.005704
     12.09857      9.87418      2.74131         0.000785     -0.003463     -0.001384
     -0.00932      7.75866      8.87060         0.000651      0.003657     -0.002063
      1.99438      3.48384      3.27867         0.001728      0.001246      0.002657
      5.71905      1.64952      3.01994         0.002328      0.001631      0.001919
      3.11637      9.80391      8.97763         0.000108     -0.000193      0.001161
      8.67656      7.75866      3.02396        -0.000651      0.003657      0.002063
      6.67286      3.48384      8.61589        -0.001728      0.001246     -0.002657
      2.94819      1.64952      8.87461        -0.002328      0.001631     -0.001919
      5.55087      9.80391      2.91692        -0.000108     -0.000193     -0.001161
      6.55737      7.61681      8.74966        -0.000753      0.000013     -0.002724
      8.87221      4.12236      2.74425        -0.002488      0.005351     -0.004362
      2.44840      0.29771      2.63055         0.003030      0.000230      0.001373
      5.20819      5.70028      3.12539        -0.001166      0.000281     -0.000360
     -0.66757      0.01534      9.35122        -0.002157     -0.002089      0.002805
      3.45905      5.70028      8.76917         0.001166      0.000281      0.000360
      9.33481      0.01534      2.54334         0.002157     -0.002089     -0.002805
     12.04631      5.57720      3.16464         0.000164     -0.000771      0.001596
      6.21885      0.29771      9.26400        -0.003030      0.000230     -0.001373
     -3.37907      5.57720      8.72992        -0.000164     -0.000771     -0.001596
 -----------------------------------------------------------------------------------
    total drift:                                0.000274     -0.001537     -0.000697


--------------------------------------------------------------------------------------------------------



  FREE ENERGIE OF THE ION-ELECTRON SYSTEM (eV)
  ---------------------------------------------------
  free  energy   TOTEN  =      -274.09677104 eV

  energy  without entropy=     -274.09677104  energy(sigma->0) =     -274.09677104
 
 d Force = 0.2324686E-03[ 0.785E-04, 0.386E-03]  d Energy = 0.2311766E-03 0.129E-05
 d Force =-0.5126265E+00[-0.517E+00,-0.508E+00]  d Ewald  =-0.5126276E+00 0.108E-05


--------------------------------------------------------------------------------------------------------


    POTLOK:  cpu time    0.2893: real time    0.2894


--------------------------------------------------------------------------------------------------------




--------------------------------------------------------------------------------------------------------


    WAVPRE:  cpu time    0.0687: real time    0.0711
    FEWALD:  cpu time    0.0017: real time    0.0017
    ORTHCH:  cpu time    0.9008: real time    0.9012
     LOOP+:  cpu time   40.8833: real time   40.9588


--------------------------------------- Iteration      8(   1)  ---------------------------------------


    POTLOK:  cpu time    0.1292: real time    0.1334
    SETDIJ:  cpu time    0.1573: real time    0.1575
     EDDAV:  cpu time    5.8147: real time    5.8211
       DOS:  cpu time    0.0002: real time    0.0002
    CHARGE:  cpu time    0.2236: real time    0.2237
    MIXING:  cpu time    0.0041: real time    0.0041
    --------------------------------------------
      LOOP:  cpu time    6.3291: real time    6.3400

 eigenvalue-minimisations  :   560
 total energy-change (2. order) : 0.2634999E-04  (-0.5680684E-02)
 number of electron     383.9999994 magnetization 
 augmentation part      -49.4174282 magnetization 

 Broyden mixing:
  rms(total) = 0.47173E-02    rms(broyden)= 0.47168E-02
  rms(prec ) = 0.53819E-02
  weight for this iteration     100.00

 Free energy of the ion-electron system (eV)
  ---------------------------------------------------
  alpha Z        PSCENC =       310.04809462
  Ewald energy   TEWEN  =    -15412.81205543
  -Hartree energ DENC   =     -4573.74827893
  -exchange      EXHF   =         0.00000000
  -V(xc)+E(xc)   XCENC  =       447.04107018
  PAW double counting   =     11243.95991818   -10653.24623994
  entropy T*S    EENTRO =        -0.00000000
  eigenvalues    EBANDS =     -1859.59840707
  atomic energy  EATOM  =     20224.25915541
  Solvation  Ediel_sol  =         0.00000000
  ---------------------------------------------------
  free energy    TOTEN  =      -274.09674298 eV

  energy without entropy =     -274.09674298  energy(sigma->0) =     -274.09674298


--------------------------------------------------------------------------------------------------------




--------------------------------------- Iteration      8(   2)  ---------------------------------------


    POTLOK:  cpu time    0.1305: real time    0.1355
    SETDIJ:  cpu time    0.1574: real time    0.1575
     EDDAV:  cpu time    5.8145: real time    5.8210
       DOS:  cpu time    0.0001: real time    0.0001
    CHARGE:  cpu time    0.2238: real time    0.2239
    MIXING:  cpu time    0.0045: real time    0.0045
    --------------------------------------------
      LOOP:  cpu time    6.3308: real time    6.3425

 eigenvalue-minimisations  :   560
 total energy-change (2. order) :-0.2468683E-03  (-0.2705571E-03)
 number of electron     383.9999994 magnetization 
 augmentation part      -49.4174257 magnetization 

 Broyden mixing:
  rms(total) = 0.14028E-02    rms(broyden)= 0.14007E-02
  rms(prec ) = 0.18527E-02
  weight for this iteration     100.00

 eigenvalues of (default mixing * dielectric matrix)
  average eigenvalue GAMMA=   0.9220
  0.9220

 Free energy of the ion-electron system (eV)
  ---------------------------------------------------
  alpha Z        PSCENC =       310.04809462
  Ewald energy   TEWEN  =    -15412.81205543
  -Hartree energ DENC   =     -4573.75258326
  -exchange      EXHF   =         0.00000000
  -V(xc)+E(xc)   XCENC  =       447.04118355
  PAW double counting   =     11243.98714024   -10653.27369596
  entropy T*S    EENTRO =        -0.00000000
  eigenvalues    EBANDS =     -1859.59422901
  atomic energy  EATOM  =     20224.25915541
  Solvation  Ediel_sol  =         0.00000000
  ---------------------------------------------------
  free energy    TOTEN  =      -274.09698985 eV

  energy without entropy =     -274.09698985  energy(sigma->0) =     -274.09698985


--------------------------------------------------------------------------------------------------------




--------------------------------------- Iteration      8(   3)  ---------------------------------------


    POTLOK:  cpu time    0.1302: real time    0.1353
    SETDIJ:  cpu time    0.1570: real time    0.1571
     EDDAV:  cpu time    5.8179: real time    5.8232
       DOS:  cpu time    0.0001: real time    0.0001
    --------------------------------------------
      LOOP:  cpu time    6.1053: real time    6.1158

 eigenvalue-minimisations  :   560
 total energy-change (2. order) : 0.7787130E-06  (-0.4238658E-05)
 number of electron     383.9999994 magnetization 
 augmentation part      -49.4174257 magnetization 

 Free energy of the ion-electron system (eV)
  ---------------------------------------------------
  alpha Z        PSCENC =       310.04809462
  Ewald energy   TEWEN  =    -15412.81205543
  -Hartree energ DENC   =     -4573.75707472
  -exchange      EXHF   =         0.00000000
  -V(xc)+E(xc)   XCENC  =       447.04120086
  PAW double counting   =     11244.00262976   -10653.28937605
  entropy T*S    EENTRO =        -0.00000000
  eigenvalues    EBANDS =     -1859.58956351
  atomic energy  EATOM  =     20224.25915541
  Solvation  Ediel_sol  =         0.00000000
  ---------------------------------------------------
  free energy    TOTEN  =      -274.09698907 eV

  energy without entropy =     -274.09698907  energy(sigma->0) =     -274.09698907


--------------------------------------------------------------------------------------------------------




 average (electrostatic) potential at core
  the test charge radii are     0.9406  1.4837  0.9748
  (the norm of the test charge is              1.0000)
       1 -92.6815       2 -92.6815       3 -94.2241       4 -94.2241       5 -94.0872
       6 -94.7276       7 -94.1113       8 -94.0458       9 -93.5671      10 -93.5671
      11 -93.6636      12 -93.6636      13 -94.1619      14 -94.0182      15 -94.0119
      16 -94.1592      17 -93.9874      18 -93.9875      19 -93.9797      20 -93.9797
      21 -94.7276      22 -94.0872      23 -94.0458      24 -94.1113      25 -93.9976
      26 -93.9976      27 -94.0159      28 -94.0160      29 -94.0183      30 -94.1619
      31 -94.1592      32 -94.0120      33 -93.7041      34 -93.7041      35 -94.0652
      36 -94.1297      37 -92.5411      38 -92.5411      39 -94.0699      40 -94.6580
      41 -93.9813      42 -93.9813      43 -94.1297      44 -94.0652      45 -94.0828
      46 -94.0828      47 -94.6580      48 -94.0699      49 -41.9818      50 -41.5408
      51 -41.8885      52 -41.9128      53 -41.9818      54 -41.8086      55 -41.8885
      56 -42.2143      57 -27.8263      58 -28.1168      59 -28.7382      60 -28.7722
      61 -27.8263      62 -28.1167      63 -28.9002      64 -28.3781      65 -28.6607
      66 -28.6609      67 -28.9002      68 -28.3781      69 -28.6607      70 -28.6609
      71 -28.7382      72 -28.7721      73 -28.5196      74 -28.7517      75 -27.9699
      76 -28.7517      77 -27.9699      78 -28.8405      79 -28.5196      80 -28.8406
 
 
 
 E-fermi :   0.4211     XC(G=0):  -7.8732     alpha+bet : -7.9187


 k-point     1 :       0.0000    0.0000    0.0000
  band No.  band energies     occupation 
      1     -14.6451      2.00000
      2     -14.3820      2.00000
      3     -14.1690      2.00000
      4     -14.1409      2.00000
      5     -14.0834      2.00000
      6     -14.0578      2.00000
      7     -14.0413      2.00000
      8     -13.9193      2.00000
      9     -13.8710      2.00000
     10     -13.8333      2.00000
     11     -13.8065      2.00000
     12     -13.7729      2.00000
     13     -13.7452      2.00000
     14     -13.7314      2.00000
     15     -13.7204      2.00000
     16     -13.6791      2.00000
     17     -13.6744      2.00000
     18     -13.6611      2.00000
     19     -13.6462      2.00000
     20     -13.5990      2.00000
     21     -13.5953      2.00000
     22     -13.5824      2.00000
     23     -13.5791      2.00000
     24     -13.5533      2.00000
     25     -13.5425      2.00000
     26     -13.4980      2.00000
     27     -13.4907      2.00000
     28     -13.4583      2.00000
     29     -13.4526      2.00000
     30     -13.4449      2.00000
     31     -13.4112      2.00000
     32     -13.4075      2.00000
     33     -13.4014      2.00000
     34     -13.3794      2.00000
     35     -13.3571      2.00000
     36     -13.3421      2.00000
     37     -13.3194      2.00000
     38     -13.3022      2.00000
     39     -13.2862      2.00000
     40     -13.2754      2.00000
     41     -13.1718      2.00000
     42     -13.1177      2.00000
     43     -12.9596      2.00000
     44     -12.9289      2.00000
     45     -12.2896      2.00000
     46     -12.2667      2.00000
     47     -12.1476      2.00000
     48     -12.1429      2.00000
     49      -5.5972      2.00000
     50      -5.3077      2.00000
     51      -5.2577      2.00000
     52      -5.1475      2.00000
     53      -5.1212      2.00000
     54      -5.0912      2.00000
     55      -4.9920      2.00000
     56      -4.6692      2.00000
     57      -3.8650      2.00000
     58      -3.6790      2.00000
     59      -3.6775      2.00000
     60      -3.4801      2.00000
     61      -3.4213      2.00000
     62      -3.3917      2.00000
     63      -3.3902      2.00000
     64      -3.3644      2.00000
     65      -3.2695      2.00000
     66      -3.2475      2.00000
     67      -3.2272      2.00000
     68      -3.2266      2.00000
     69      -3.1783      2.00000
     70      -3.0645      2.00000
     71      -3.0406      2.00000
     72      -3.0100      2.00000
     73      -3.0052      2.00000
     74      -2.9700      2.00000
     75      -2.9566      2.00000
     76      -2.8980      2.00000
     77      -2.8225      2.00000
     78      -2.7586      2.00000
     79      -2.7396      2.00000
     80      -2.7331      2.00000
     81      -2.6552      2.00000
     82      -2.6205      2.00000
     83      -2.6145      2.00000
     84      -2.5932      2.00000
     85      -2.5656      2.00000
     86      -2.5530      2.00000
     87      -2.5022      2.00000
     88      -2.4543      2.00000
     89      -2.4133      2.00000
     90      -2.3900      2.00000
     91      -2.3671      2.00000
     92      -2.3503      2.00000
     93      -2.3227      2.00000
     94      -2.3136      2.00000
     95      -2.3055      2.00000
     96      -2.3051      2.00000
     97      -2.2538      2.00000
     98      -2.2204      2.00000
     99      -2.2172      2.00000
    100      -2.1926      2.00000
    101      -2.1626      2.00000
    102      -2.1435      2.00000
    103      -2.1214      2.00000
    104      -2.0650      2.00000
    105      -2.0177      2.00000
    106      -2.0032      2.00000
    107      -1.9697      2.00000
    108      -1.9526      2.00000
    109      -1.9308      2.00000
    110      -1.9114      2.00000
    111      -1.9037      2.00000
    112      -1.8891      2.00000
    113      -1.8558      2.00000
    114      -1.8242      2.00000
    115      -1.8228      2.00000
    116      -1.7929      2.00000
    117      -1.7745      2.00000
    118      -1.7202      2.00000
    119      -1.7023      2.00000
    120      -1.6858      2.00000
    121      -1.6749      2.00000
    122      -1.6745      2.00000
    123      -1.6470      2.00000
    124      -1.6420      2.00000
    125      -1.6104      2.00000
    126      -1.6072      2.00000
    127      -1.5808      2.00000
    128      -1.5575      2.00000
    129      -1.5511      2.00000
    130      -1.5270      2.00000
    131      -1.5193      2.00000
    132      -1.5129      2.00000
    133      -1.4880      2.00000
    134      -1.4631      2.00000
    135      -1.4472      2.00000
    136      -1.4392      2.00000
    137      -1.4320      2.00000
    138      -1.3903      2.00000
    139      -1.3902      2.00000
    140      -1.3803      2.00000
    141      -1.3501      2.00000
    142      -1.3486      2.00000
    143      -1.3324      2.00000
    144      -1.3311      2.00000
    145      -1.3078      2.00000
    146      -1.2972      2.00000
    147      -1.2819      2.00000
    148      -1.2662      2.00000
    149      -1.2527      2.00000
    150      -1.2431      2.00000
    151      -1.2268      2.00000
    152      -1.2094      2.00000
    153      -1.1955      2.00000
    154      -1.1804      2.00000
    155      -1.1786      2.00000
    156      -1.1573      2.00000
    157      -1.1489      2.00000
    158      -1.1177      2.00000
    159      -1.0948      2.00000
    160      -1.0815      2.00000
    161      -1.0810      2.00000
    162      -1.0744      2.00000
    163      -1.0589      2.00000
    164      -1.0544      2.00000
    165      -1.0124      2.00000
    166      -0.9932      2.00000
    167      -0.9807      2.00000
    168      -0.9728      2.00000
    169      -0.9462      2.00000
    170      -0.9307      2.00000
    171      -0.9205      2.00000
    172      -0.9057      2.00000
    173      -0.8810      2.00000
    174      -0.8618      2.00000
    175      -0.8326      2.00000
    176      -0.8015      2.00000
    177      -0.7951      2.00000
    178      -0.7601      2.00000
    179      -0.7545      2.00000
    180      -0.6725      2.00000
    181      -0.6708      2.00000
    182      -0.6018      2.00000
    183      -0.5965      2.00000
    184      -0.5252      2.00000
    185      -0.3644      2.00000
    186      -0.3551      2.00000
    187      -0.3401      2.00000
    188      -0.2747      2.00000
    189      -0.2425      2.00000
    190      -0.2265      2.00000
    191      -0.1626      2.00000
    192      -0.0654      2.00000
    193       2.4807      0.00000
    194       2.7996      0.00000
    195       2.8177      0.00000
    196       2.9362      0.00000
    197       3.1341      0.00000
    198       3.1467      0.00000
    199       3.2213      0.00000
    200       3.4263      0.00000
    201       5.6754      0.00000
    202       5.8131      0.00000
    203       5.9136      0.00000
    204       5.9625      0.00000
    205       6.0641      0.00000
    206       6.0749      0.00000
    207       6.1350      0.00000
    208       6.1874      0.00000
    209       6.2649      0.00000
    210       6.3708      0.00000
    211       6.4905      0.00000
    212       6.5368      0.00000
    213       6.6332      0.00000
    214       6.6407      0.00000
    215       6.6975      0.00000
    216       6.7422      0.00000
    217       6.8240      0.00000
    218       6.8361      0.00000
    219       6.9202      0.00000
    220       6.9716      0.00000
    221       6.9890      0.00000
    222       7.0505      0.00000
    223       7.1793      0.00000
    224       7.2357      0.00000
    225       7.2681      0.00000
    226       7.3646      0.00000
    227       7.4434      0.00000
    228       7.4616      0.00000
    229       7.5408      0.00000
    230       7.5599      0.00000
    231       7.6022      0.00000
    232       7.6974      0.00000
    233       7.7853      0.00000
    234       7.8055      0.00000
    235       7.8216      0.00000
    236       7.8781      0.00000
    237       7.8863      0.00000
    238       7.9053      0.00000
    239       7.9845      0.00000
    240       8.0070      0.00000


--------------------------------------------------------------------------------------------------------


 soft charge-density along one line, spin component           1
         0         1         2         3         4         5         6         7         8         9
 total charge-density along one line
 
 pseudopotential strength for first ion, spin component:           1
 47.404  -0.016  -0.003   0.019   0.003  -0.000   0.000   0.000
 -0.016   0.019  -0.000   0.000   0.000  -0.000   0.000   0.000
 -0.003  -0.000   9.108   0.000  -0.000   0.002  -0.000   0.000
  0.019   0.000   0.000   9.105   0.000  -0.000   0.002  -0.000
  0.003   0.000  -0.000   0.000   9.109   0.000  -0.000   0.002
 -0.000  -0.000   0.002  -0.000   0.000   0.035   0.000   0.000
  0.000   0.000  -0.000   0.002  -0.000   0.000   0.035   0.000
  0.000   0.000   0.000  -0.000   0.002   0.000   0.000   0.035
 total augmentation occupancy for first ion, spin component:           1
  1.911   0.427   0.009  -0.060  -0.010   0.012  -0.067  -0.011
  0.427   0.249  -0.054   0.335   0.056   0.013  -0.099  -0.023
  0.009  -0.054   1.759  -0.001   0.003  -0.398  -0.007   0.002
 -0.060   0.335  -0.001   1.797  -0.001  -0.007  -0.330  -0.010
 -0.010   0.056   0.003  -0.001   1.751   0.002  -0.010  -0.422
  0.012   0.013  -0.398  -0.007   0.002   0.101   0.003  -0.000
 -0.067  -0.099  -0.007  -0.330  -0.010   0.003   0.078   0.006
 -0.011  -0.023   0.002  -0.010  -0.422  -0.000   0.006   0.114


------------------------ aborting loop because EDIFF is reached ----------------------------------------


 


 total charge     
 
# of ion       s       p       d       tot
------------------------------------------
    1        1.589   3.591   0.000   5.180
    2        1.589   3.591   0.000   5.180
    3        1.599   3.535   0.000   5.134
    4        1.599   3.535   0.000   5.134
    5        1.598   3.544   0.000   5.141
    6        1.602   3.527   0.000   5.130
    7        1.598   3.539   0.000   5.137
    8        1.599   3.536   0.000   5.135
    9        1.597   3.539   0.000   5.136
   10        1.597   3.539   0.000   5.136
   11        1.594   3.555   0.000   5.149
   12        1.594   3.555   0.000   5.149
   13        1.597   3.549   0.000   5.145
   14        1.598   3.544   0.000   5.143
   15        1.599   3.543   0.000   5.142
   16        1.596   3.550   0.000   5.146
   17        1.597   3.544   0.000   5.140
   18        1.597   3.544   0.000   5.140
   19        1.595   3.548   0.000   5.143
   20        1.595   3.548   0.000   5.143
   21        1.602   3.527   0.000   5.130
   22        1.598   3.544   0.000   5.141
   23        1.599   3.536   0.000   5.135
   24        1.598   3.539   0.000   5.137
   25        1.596   3.561   0.000   5.156
   26        1.596   3.561   0.000   5.156
   27        1.596   3.546   0.000   5.142
   28        1.596   3.546   0.000   5.142
   29        1.598   3.544   0.000   5.143
   30        1.597   3.549   0.000   5.145
   31        1.596   3.550   0.000   5.146
   32        1.599   3.543   0.000   5.142
   33        1.599   3.539   0.000   5.139
   34        1.599   3.539   0.000   5.139
   35        1.596   3.552   0.000   5.148
   36        1.595   3.562   0.000   5.157
   37        1.590   3.591   0.000   5.181
   38        1.590   3.591   0.000   5.181
   39        1.599   3.537   0.000   5.136
   40        1.604   3.522   0.000   5.126
   41        1.600   3.540   0.000   5.140
   42        1.600   3.540   0.000   5.140
   43        1.595   3.562   0.000   5.157
   44        1.596   3.552   0.000   5.148
   45        1.596   3.557   0.000   5.153
   46        1.596   3.557   0.000   5.153
   47        1.604   3.522   0.000   5.126
   48        1.599   3.537   0.000   5.136
   49        0.975   1.144   0.372   2.492
   50        0.966   1.105   0.359   2.430
   51        0.971   1.148   0.382   2.501
   52        0.961   1.116   0.369   2.446
   53        0.975   1.144   0.372   2.492
   54        0.969   1.133   0.374   2.477
   55        0.971   1.148   0.382   2.501
   56        0.974   1.143   0.371   2.488
   57        0.071   0.129   0.000   0.200
   58        0.071   0.133   0.000   0.204
   59        0.056   0.102   0.000   0.158
   60        0.058   0.104   0.000   0.162
   61        0.071   0.129   0.000   0.200
   62        0.071   0.133   0.000   0.204
   63        0.056   0.101   0.000   0.157
   64        0.064   0.115   0.000   0.179
   65        0.061   0.110   0.000   0.171
   66        0.061   0.112   0.000   0.173
   67        0.056   0.101   0.000   0.157
   68        0.064   0.115   0.000   0.179
   69        0.061   0.110   0.000   0.171
   70        0.061   0.112   0.000   0.173
   71        0.056   0.102   0.000   0.158
   72        0.058   0.104   0.000   0.162
   73        0.062   0.110   0.000   0.172
   74        0.060   0.107   0.000   0.167
   75        0.068   0.126   0.000   0.195
   76        0.060   0.107   0.000   0.167
   77        0.068   0.126   0.000   0.195
   78        0.060   0.108   0.000   0.168
   79        0.062   0.110   0.000   0.172
   80        0.060   0.108   0.000   0.168
--------------------------------------------------
tot         85.914 182.099   2.983 270.996
 
    CHARGE:  cpu time    0.2224: real time    0.2226
    FORLOC:  cpu time    0.0564: real time    0.0565
    FORNL :  cpu time    1.4312: real time    1.4318
    STRESS:  cpu time    7.0412: real time    7.0470
    FORCOR:  cpu time    0.1676: real time    0.1677
    FORHAR:  cpu time    0.0812: real time    0.0812
    MIXING:  cpu time    0.0038: real time    0.0038
    OFIELD:  cpu time    0.0000: real time    0.0000

  FORCE on cell =-STRESS in cart. coord.  units (eV):
  Direction    XX          YY          ZZ          XY          YZ          ZX
  --------------------------------------------------------------------------------------
  Alpha Z   310.04809   310.04809   310.04809
  Ewald   -5106.93123 -5450.61779 -4855.35280    -0.00000    -0.00000    23.59742
  Hartree  1544.25707  1337.23244  1692.28888    -0.00000     0.00000     8.44102
  E(xc)   -1403.65437 -1403.54816 -1405.02637     0.00000     0.00000     0.17449
  Local   -4337.73991 -3802.08274 -4719.66970    -0.00000     0.00000   -33.53047
  n-local  4203.96940  4200.61598  4209.52141    -0.00001     0.00000     0.14349
  augment  -980.07710  -981.08810  -979.49268    -0.00000     0.00000    -0.08284
  Kinetic  5771.02485  5792.35771  5748.24525     0.00001     0.00000     1.36247
  Fock        0.00000     0.00000     0.00000     0.00000     0.00000     0.00000
  -------------------------------------------------------------------------------------
  Total       0.89680     2.91743     0.56209     0.00000     0.00000     0.10558
  in kB       0.77203     2.51154     0.48389     0.00000     0.00000     0.09089
  external pressure =        1.26 kB  Pullay stress =        0.00 kB


 VOLUME and BASIS-vectors are now :
 -----------------------------------------------------------------------------
  energy-cutoff  :      520.00
  volume of cell :     1861.11
      direct lattice vectors                 reciprocal lattice vectors
    13.459017910  0.000000000 -0.273085008     0.074898101  0.000000000  0.029495859
     0.000000000 11.456071877  0.000000000     0.000000000  0.087289955  0.000000000
    -4.791777054  0.000000000 12.167640179     0.001680979  0.000000000  0.082847197

  length of vectors
    13.461788088 11.456071877 13.077178399     0.080496777  0.087289955  0.082864248


 FORCES acting on ions
    electron-ion (+dipol)            ewald-force                    non-local-force                 convergence-correction
 -----------------------------------------------------------------------------------------------
   0.141E+02 0.740E+01 0.546E+02   -.143E+02 -.719E+01 -.560E+02   0.160E+00 -.216E+00 0.144E+01   0.606E-02 0.699E-02 -.704E-02
   -.141E+02 0.740E+01 -.546E+02   0.143E+02 -.719E+01 0.560E+02   -.160E+00 -.216E+00 -.144E+01   -.606E-02 0.699E-02 0.704E-02
   0.216E+02 -.725E+02 0.130E+01   -.227E+02 0.746E+02 -.292E+01   0.107E+01 -.212E+01 0.163E+01   -.505E-02 -.256E-02 0.493E-02
   -.216E+02 -.725E+02 -.130E+01   0.227E+02 0.746E+02 0.292E+01   -.107E+01 -.212E+01 -.163E+01   0.505E-02 -.256E-02 -.493E-02
   -.405E+02 -.418E+02 0.380E+01   0.413E+02 0.436E+02 -.297E+01   -.814E+00 -.184E+01 -.822E+00   0.118E-02 0.788E-03 -.514E-02
   -.326E+02 -.388E+02 0.273E+02   0.336E+02 0.398E+02 -.288E+02   -.995E+00 -.922E+00 0.146E+01   -.172E-02 -.199E-02 0.136E-02
   0.224E+02 0.762E+02 -.461E+01   -.236E+02 -.783E+02 0.377E+01   0.113E+01 0.211E+01 0.840E+00   -.241E-02 -.270E-02 0.388E-02
   -.252E+02 0.515E+02 0.160E+02   0.260E+02 -.538E+02 -.148E+02   -.845E+00 0.230E+01 -.123E+01   0.148E-01 -.770E-02 0.350E-02
   -.181E+02 -.448E+02 -.250E+01   0.188E+02 0.465E+02 0.338E+01   -.718E+00 -.176E+01 -.884E+00   0.155E-01 0.850E-02 0.315E-03
   0.181E+02 -.448E+02 0.250E+01   -.188E+02 0.465E+02 -.338E+01   0.718E+00 -.176E+01 0.884E+00   -.155E-01 0.850E-02 -.315E-03
   0.216E+02 0.267E+02 -.691E+01   -.221E+02 -.278E+02 0.669E+01   0.497E+00 0.108E+01 0.223E+00   0.192E-02 0.711E-02 0.389E-02
   -.216E+02 0.267E+02 0.691E+01   0.221E+02 -.278E+02 -.669E+01   -.497E+00 0.108E+01 -.223E+00   -.192E-02 0.711E-02 -.389E-02
   -.265E+02 -.402E+02 0.415E+01   0.276E+02 0.418E+02 -.370E+01   -.118E+01 -.158E+01 -.458E+00   0.146E-02 0.568E-02 0.736E-02
   0.196E+02 -.430E+02 -.150E+02   -.206E+02 0.450E+02 0.142E+02   0.983E+00 -.197E+01 0.788E+00   -.754E-04 0.922E-02 -.433E-02
   0.240E+02 0.588E+02 0.102E+01   -.250E+02 -.611E+02 -.162E+01   0.107E+01 0.228E+01 0.607E+00   -.103E-02 -.169E-02 -.771E-02
   -.157E+02 0.471E+02 -.220E+01   0.165E+02 -.486E+02 0.304E+01   -.776E+00 0.152E+01 -.840E+00   0.166E-02 -.480E-02 -.642E-02
   -.248E+02 -.489E+02 0.738E+01   0.258E+02 0.505E+02 -.650E+01   -.980E+00 -.156E+01 -.880E+00   -.635E-03 0.479E-02 0.106E-02
   0.248E+02 -.489E+02 -.738E+01   -.258E+02 0.505E+02 0.650E+01   0.980E+00 -.156E+01 0.880E+00   0.635E-03 0.479E-02 -.106E-02
   0.188E+02 0.362E+02 -.705E+01   -.195E+02 -.376E+02 0.643E+01   0.782E+00 0.144E+01 0.627E+00   -.515E-02 -.647E-02 -.438E-02
   -.188E+02 0.362E+02 0.705E+01   0.195E+02 -.376E+02 -.643E+01   -.782E+00 0.144E+01 -.627E+00   0.515E-02 -.647E-02 0.438E-02
   0.326E+02 -.388E+02 -.273E+02   -.336E+02 0.398E+02 0.288E+02   0.995E+00 -.922E+00 -.146E+01   0.172E-02 -.199E-02 -.136E-02
   0.405E+02 -.418E+02 -.380E+01   -.413E+02 0.436E+02 0.297E+01   0.814E+00 -.184E+01 0.822E+00   -.118E-02 0.788E-03 0.514E-02
   0.252E+02 0.515E+02 -.160E+02   -.260E+02 -.538E+02 0.148E+02   0.845E+00 0.230E+01 0.123E+01   -.148E-01 -.770E-02 -.350E-02
   -.224E+02 0.762E+02 0.461E+01   0.236E+02 -.783E+02 -.377E+01   -.113E+01 0.211E+01 -.840E+00   0.241E-02 -.270E-02 -.388E-02
   -.253E+02 -.370E+02 0.551E+01   0.255E+02 0.385E+02 -.500E+01   -.293E+00 -.146E+01 -.516E+00   0.118E-01 0.316E-02 0.777E-02
   0.253E+02 -.370E+02 -.551E+01   -.255E+02 0.385E+02 0.500E+01   0.293E+00 -.146E+01 0.516E+00   -.118E-01 0.316E-02 -.777E-02
   0.247E+02 0.291E+02 -.753E+01   -.256E+02 -.303E+02 0.659E+01   0.846E+00 0.118E+01 0.946E+00   -.142E-02 -.130E-01 -.162E-02
   -.247E+02 0.291E+02 0.753E+01   0.256E+02 -.303E+02 -.659E+01   -.846E+00 0.118E+01 -.946E+00   0.142E-02 -.130E-01 0.162E-02
   -.196E+02 -.430E+02 0.150E+02   0.206E+02 0.450E+02 -.142E+02   -.983E+00 -.197E+01 -.788E+00   0.754E-04 0.922E-02 0.433E-02
   0.265E+02 -.402E+02 -.415E+01   -.276E+02 0.418E+02 0.370E+01   0.118E+01 -.158E+01 0.458E+00   -.146E-02 0.568E-02 -.736E-02
   0.157E+02 0.471E+02 0.220E+01   -.165E+02 -.486E+02 -.304E+01   0.776E+00 0.152E+01 0.840E+00   -.166E-02 -.480E-02 0.642E-02
   -.240E+02 0.588E+02 -.102E+01   0.250E+02 -.611E+02 0.162E+01   -.107E+01 0.228E+01 -.607E+00   0.103E-02 -.169E-02 0.771E-02
   -.532E+02 -.120E+02 0.788E+00   0.558E+02 0.120E+02 -.123E+01   -.262E+01 -.315E-01 0.459E+00   -.382E-02 0.119E-01 -.965E-02
   0.532E+02 -.120E+02 -.789E+00   -.558E+02 0.120E+02 0.123E+01   0.262E+01 -.315E-01 -.459E+00   0.382E-02 0.119E-01 0.965E-02
   -.445E+02 0.757E+01 -.184E+02   0.460E+02 -.781E+01 0.176E+02   -.152E+01 0.234E+00 0.731E+00   -.608E-02 0.487E-02 -.439E-02
   0.385E+02 0.700E+01 0.132E+02   -.399E+02 -.671E+01 -.128E+02   0.144E+01 -.289E+00 -.333E+00   0.392E-02 -.565E-02 0.173E-02
   0.871E+01 -.302E+02 -.571E+02   -.873E+01 0.302E+02 0.586E+02   0.195E-01 -.186E-01 -.157E+01   -.226E-02 0.451E-02 -.988E-02
   -.871E+01 -.302E+02 0.571E+02   0.873E+01 0.302E+02 -.586E+02   -.195E-01 -.186E-01 0.157E+01   0.226E-02 0.451E-02 0.988E-02
   -.561E+02 0.517E+01 -.173E+02   0.587E+02 -.480E+01 0.165E+02   -.264E+01 -.347E+00 0.760E+00   -.214E-02 -.124E-01 -.374E-02
   0.159E+02 0.632E+02 -.211E+02   -.167E+02 -.648E+02 0.224E+02   0.771E+00 0.159E+01 -.139E+01   0.106E-01 0.467E-02 0.112E-02
   -.545E+02 -.476E+01 -.143E+02   0.572E+02 0.461E+01 0.140E+02   -.274E+01 0.144E+00 0.300E+00   -.516E-02 -.361E-04 -.569E-02
   0.545E+02 -.476E+01 0.143E+02   -.572E+02 0.461E+01 -.140E+02   0.274E+01 0.144E+00 -.300E+00   0.516E-02 -.361E-04 0.569E-02
   -.385E+02 0.700E+01 -.132E+02   0.399E+02 -.671E+01 0.128E+02   -.144E+01 -.289E+00 0.333E+00   -.392E-02 -.565E-02 -.173E-02
   0.445E+02 0.757E+01 0.184E+02   -.460E+02 -.781E+01 -.176E+02   0.152E+01 0.234E+00 -.731E+00   0.608E-02 0.487E-02 0.439E-02
   -.540E+02 -.831E+01 -.243E+02   0.557E+02 0.828E+01 0.239E+02   -.178E+01 0.351E-01 0.413E+00   -.450E-02 -.270E-02 -.310E-02
   0.540E+02 -.831E+01 0.243E+02   -.557E+02 0.828E+01 -.239E+02   0.178E+01 0.351E-01 -.413E+00   0.450E-02 -.270E-02 0.310E-02
   -.159E+02 0.632E+02 0.211E+02   0.167E+02 -.648E+02 -.224E+02   -.771E+00 0.159E+01 0.139E+01   -.106E-01 0.467E-02 -.112E-02
   0.561E+02 0.517E+01 0.173E+02   -.587E+02 -.480E+01 -.165E+02   0.264E+01 -.347E+00 -.760E+00   0.214E-02 -.124E-01 0.374E-02
   -.768E+01 0.950E+01 0.133E+01   0.930E+01 -.105E+02 -.124E+01   -.162E+01 0.955E+00 -.948E-01   0.579E-03 -.631E-03 0.864E-03
   -.489E-06 -.211E+01 -.937E-06   -.358E-05 0.327E+01 -.690E-05   0.000E+00 -.116E+01 0.000E+00   -.143E-08 -.429E-03 -.776E-09
   -.296E+01 0.319E+01 -.370E+01   0.263E+01 -.335E+01 0.276E+01   0.336E+00 0.157E+00 0.940E+00   0.237E-03 -.527E-03 0.674E-04
   0.641E-06 -.263E+01 0.980E-06   0.470E-05 0.302E+01 0.720E-05   0.000E+00 -.392E+00 0.000E+00   0.511E-09 0.439E-03 -.279E-09
   0.768E+01 0.950E+01 -.133E+01   -.930E+01 -.105E+02 0.124E+01   0.162E+01 0.955E+00 0.948E-01   -.579E-03 -.631E-03 -.864E-03
   -.497E-06 0.276E+01 -.893E-06   -.364E-05 -.257E+01 -.656E-05   0.000E+00 -.188E+00 0.000E+00   -.115E-08 -.421E-03 0.777E-09
   0.296E+01 0.319E+01 0.370E+01   -.263E+01 -.335E+01 -.276E+01   -.336E+00 0.157E+00 -.940E+00   -.237E-03 -.527E-03 -.674E-04
   0.235E-07 -.125E+02 0.146E-05   0.138E-06 0.139E+02 0.108E-04   0.000E+00 -.136E+01 0.000E+00   -.491E-10 0.102E-02 0.276E-08
   0.550E+00 -.874E+01 0.272E+01   -.167E+00 0.783E+01 -.339E+01   -.387E+00 0.902E+00 0.681E+00   0.149E-05 0.118E-03 -.426E-04
   0.323E+01 0.473E+01 -.381E+00   -.274E+01 -.355E+01 0.585E+00   -.481E+00 -.119E+01 -.202E+00   -.123E-04 0.130E-03 -.735E-04
   -.310E+01 -.409E+01 -.469E+01   0.297E+01 0.400E+01 0.461E+01   0.136E+00 0.958E-01 0.774E-01   0.111E-03 0.528E-04 -.290E-04
   -.820E+00 0.104E+02 -.122E+01   0.770E+00 -.969E+01 0.122E+01   0.524E-01 -.683E+00 -.400E-02   0.838E-04 -.259E-03 0.628E-04
   -.550E+00 -.874E+01 -.272E+01   0.167E+00 0.783E+01 0.339E+01   0.387E+00 0.902E+00 -.681E+00   -.149E-05 0.118E-03 0.426E-04
   -.323E+01 0.473E+01 0.381E+00   0.274E+01 -.355E+01 -.585E+00   0.481E+00 -.119E+01 0.202E+00   0.123E-04 0.130E-03 0.735E-04
   0.181E+01 -.549E+01 -.346E+01   -.147E+01 0.513E+01 0.302E+01   -.342E+00 0.366E+00 0.434E+00   0.310E-03 0.475E-04 0.687E-04
   -.652E+00 -.337E-01 -.463E-01   0.121E+00 -.769E+00 -.257E+00   0.531E+00 0.803E+00 0.305E+00   0.997E-04 -.179E-03 -.183E-03
   -.129E+01 -.809E+01 0.808E+00   0.135E+01 0.743E+01 -.728E+00   -.556E-01 0.662E+00 -.774E-01   -.316E-04 0.361E-03 -.282E-03
   0.395E+00 0.812E+01 -.666E+00   -.419E+00 -.734E+01 0.652E+00   0.243E-01 -.780E+00 0.154E-01   0.645E-05 -.242E-03 0.462E-04
   -.181E+01 -.549E+01 0.346E+01   0.147E+01 0.513E+01 -.302E+01   0.342E+00 0.366E+00 -.434E+00   -.310E-03 0.475E-04 -.687E-04
   0.652E+00 -.337E-01 0.463E-01   -.121E+00 -.769E+00 0.257E+00   -.531E+00 0.803E+00 -.305E+00   -.997E-04 -.179E-03 0.183E-03
   0.129E+01 -.809E+01 -.808E+00   -.135E+01 0.743E+01 0.728E+00   0.556E-01 0.662E+00 0.774E-01   0.316E-04 0.361E-03 0.282E-03
   -.395E+00 0.812E+01 0.666E+00   0.419E+00 -.734E+01 -.652E+00   -.243E-01 -.780E+00 -.154E-01   -.645E-05 -.242E-03 -.462E-04
   0.310E+01 -.409E+01 0.469E+01   -.297E+01 0.400E+01 -.461E+01   -.136E+00 0.958E-01 -.774E-01   -.111E-03 0.528E-04 0.290E-04
   0.820E+00 0.104E+02 0.122E+01   -.770E+00 -.969E+01 -.122E+01   -.524E-01 -.683E+00 0.400E-02   -.838E-04 -.259E-03 -.628E-04
   0.464E+01 0.448E+01 0.436E+01   -.495E+01 -.339E+01 -.451E+01   0.314E+00 -.109E+01 0.142E+00   0.769E-05 0.282E-03 -.479E-04
   -.271E+01 0.617E+00 -.493E+00   0.263E+01 -.667E+00 0.383E+00   0.833E-01 0.515E-01 0.111E+00   -.429E-05 -.161E-03 -.360E-03
   -.544E+01 -.169E+01 -.430E+00   0.443E+01 0.174E+01 0.787E+00   0.101E+01 -.566E-01 -.354E+00   0.244E-04 0.189E-03 -.131E-03
   0.271E+01 0.617E+00 0.493E+00   -.263E+01 -.667E+00 -.383E+00   -.833E-01 0.515E-01 -.111E+00   0.429E-05 -.161E-03 0.360E-03
   0.544E+01 -.169E+01 0.430E+00   -.443E+01 0.174E+01 -.787E+00   -.101E+01 -.566E-01 0.354E+00   -.244E-04 0.189E-03 0.131E-03
   0.939E+00 0.189E+01 0.323E+00   -.806E+00 -.221E+01 0.130E-01   -.134E+00 0.318E+00 -.335E+00   0.626E-04 -.199E-03 -.221E-04
   -.464E+01 0.448E+01 -.436E+01   0.495E+01 -.339E+01 0.451E+01   -.314E+00 -.109E+01 -.142E+00   -.769E-05 0.282E-03 0.479E-04
   -.939E+00 0.189E+01 -.323E+00   0.806E+00 -.221E+01 -.130E-01   0.134E+00 0.318E+00 0.335E+00   -.626E-04 -.199E-03 0.221E-04
 -----------------------------------------------------------------------------------------------
   0.274E-03 0.245E+01 -.697E-03   -.124E-12 0.715E-13 0.176E-13   -.228E-14 -.247E+01 0.555E-15   -.727E-08 0.195E-01 0.550E-08
 
 
 POSITION                                       TOTAL-FORCE (eV/Angst)
 -----------------------------------------------------------------------------------
      1.01455      1.91937      1.90116        -0.001248     -0.002327      0.002548
      7.65269      1.91937      9.99339         0.001248     -0.002327     -0.002548
      7.77148      9.34183     10.18584        -0.002013      0.002497      0.001887
      0.89576      9.34183      1.70871         0.002013      0.002497     -0.001887
      4.19819      7.46024      1.64391        -0.001312     -0.000969     -0.001190
     -2.65705      7.54719     10.69644         0.002979     -0.000840      0.002732
     -2.33654      4.07480     10.44974        -0.000484      0.000567      0.004079
      4.23127      3.97390      1.60172        -0.001518     -0.000825     -0.000339
     -1.48520      1.72535      7.74299        -0.003871     -0.002613     -0.001522
     10.15244      1.72535      4.15156         0.003871     -0.002613      0.001522
     10.07871      9.61756      4.16027         0.000355     -0.001149      0.001082
     -1.41147      9.61756      7.73429        -0.000355     -0.001149     -0.001082
      2.05070      7.46611      7.58912        -0.000054     -0.002946     -0.003610
     -0.04093      7.40225      4.47164        -0.001183     -0.000625      0.002610
     -0.08930      3.92823      4.63232         0.000130     -0.001589      0.005631
      1.88098      4.01568      7.76593         0.000231      0.002798     -0.001465
      7.67902      1.76019      1.49675         0.001141     -0.002110     -0.002729
      0.98822      1.76019     10.39781        -0.001141     -0.002110      0.002729
      1.04622      9.71547     10.39139         0.000173      0.002524      0.002827
      7.62102      9.71547      1.50316        -0.000173      0.002524     -0.002827
     11.32429      7.54719      1.19811        -0.002979     -0.000840     -0.002732
      4.46905      7.46024     10.25064         0.001312     -0.000969      0.001190
      4.43597      3.97390     10.29283         0.001518     -0.000825      0.000339
     11.00379      4.07480      1.44482         0.000484      0.000567     -0.004079
      5.08446      1.80881      7.57750        -0.002362     -0.000641     -0.002715
      3.58278      1.80881      4.31706         0.002362     -0.000641      0.002715
      3.37817      9.75587      4.19805        -0.000882      0.004274      0.003072
      5.28907      9.75587      7.69651         0.000882      0.004274     -0.003072
      8.70817      7.40225      7.42292         0.001183     -0.000625     -0.002610
      6.61654      7.46611      4.30543         0.000054     -0.002946      0.003610
      6.78626      4.01568      4.12863        -0.000231      0.002798      0.001465
      8.75654      3.92823      7.26224        -0.000130     -0.001589     -0.005631
     -0.33456     11.33145      4.64668         0.000902     -0.005566      0.003612
      9.00180     11.33145      7.24788        -0.000902     -0.005566     -0.003612
      2.98485      5.62547      4.50899         0.003811     -0.001350      0.003045
     -1.12416      5.88599      7.61558        -0.002388      0.002191     -0.000176
     -2.53717     11.33076     10.68712         0.000033     -0.001980      0.002336
     11.20441     11.33076      1.20743        -0.000033     -0.001980     -0.002336
      0.60144      5.97489     10.66112         0.002976      0.005289      0.001295
      1.12235      5.82391      1.32569        -0.007225      0.001461     -0.002666
      6.45239     11.37269      4.59011         0.000989      0.000116      0.000947
      2.21485     11.37269      7.30445        -0.000989      0.000116     -0.000947
      9.79140      5.88599      4.27897         0.002388      0.002191      0.000176
      5.68239      5.62547      7.38556        -0.003811     -0.001350     -0.003045
      4.01417      0.03715     10.53363         0.000741      0.002342      0.001176
      4.65307      0.03715      1.36093        -0.000741      0.002342     -0.001176
      7.54489      5.82391     10.56887         0.007225      0.001461      0.002666
      8.06580      5.97489      1.23343        -0.002976      0.005289     -0.001295
      3.41425      5.68663     -0.00959        -0.002334      0.000628     -0.001192
     -2.39589      0.01009      6.08382         0.000000     -0.003776      0.000000
      0.95288      5.70986      6.07044         0.000712     -0.000845      0.002979
      6.72951      0.03999     -0.13654         0.000000      0.000438      0.000000
      5.25299      5.68663     11.90414         0.002334      0.000628      0.001192
      4.33362     11.39914      5.94728         0.000000      0.001538      0.000000
      7.71436      5.70986      5.82412        -0.000712     -0.000845     -0.002979
     -0.00000      7.78685      0.00000         0.000000     -0.004245      0.000000
     12.36828      1.40157      2.47420        -0.004176     -0.001269      0.005119
     -3.43152      9.87362      9.15353        -0.000460     -0.002474      0.002178
      2.10999      7.61691      3.14533         0.000681     -0.000339      0.002259
     -0.20451      4.12334      9.15100         0.002262      0.005633      0.004412
     -3.70104      1.40157      9.42035         0.004176     -0.001269     -0.005119
     12.09876      9.87362      2.74103         0.000460     -0.002474     -0.002178
     -0.00923      7.75920      8.87011        -0.000003      0.003104     -0.001781
      1.99463      3.48399      3.27926         0.000579      0.000272      0.001685
      5.71951      1.64981      3.02029         0.003119      0.000665      0.002028
      3.11642      9.80398      8.97785         0.000272      0.000862      0.000863
      8.67647      7.75920      3.02444         0.000003      0.003104      0.001781
      6.67261      3.48399      8.61530        -0.000579      0.000272     -0.001685
      2.94773      1.64981      8.87426        -0.003119      0.000665     -0.002028
      5.55082      9.80398      2.91671        -0.000272      0.000862     -0.000863
      6.55725      7.61691      8.74922        -0.000681     -0.000339     -0.002259
      8.87175      4.12334      2.74356        -0.002262      0.005633     -0.004412
      2.44891      0.29774      2.63075         0.002338      0.000539      0.000958
      5.20798      5.70034      3.12526        -0.000907      0.000493      0.000442
     -0.66793      0.01507      9.35149        -0.002012     -0.001660      0.003011
      3.45926      5.70034      8.76930         0.000907      0.000493     -0.000442
      9.33517      0.01507      2.54307         0.002012     -0.001660     -0.003011
     12.04636      5.57703      3.16486        -0.000288     -0.001118      0.001043
      6.21833      0.29774      9.26380        -0.002338      0.000539     -0.000958
     -3.37912      5.57703      8.72970         0.000288     -0.001118     -0.001043
 -----------------------------------------------------------------------------------
    total drift:                                0.000274     -0.000976     -0.000697


--------------------------------------------------------------------------------------------------------



  FREE ENERGIE OF THE ION-ELECTRON SYSTEM (eV)
  ---------------------------------------------------
  free  energy   TOTEN  =      -274.09698907 eV

  energy  without entropy=     -274.09698907  energy(sigma->0) =     -274.09698907
 
 d Force = 0.2096133E-03[ 0.164E-03, 0.255E-03]  d Energy = 0.2180318E-03-0.842E-05
 d Force =-0.2050484E+00[-0.206E+00,-0.204E+00]  d Ewald  =-0.2050484E+00 0.763E-08


--------------------------------------------------------------------------------------------------------


    POTLOK:  cpu time    0.2897: real time    0.2900


--------------------------------------------------------------------------------------------------------


 Conjugate gradient step on ions:
 trial-energy change:   -0.000218  1 .order   -0.000210   -0.000255   -0.000164
  (g-gl).g = 0.914E-04      g.g   = 0.117E-03  gl.gl    = 0.215E-03
 g(Force)  = 0.117E-03   g(Stress)= 0.000E+00 ortho     = 0.292E-04
 gamma     =   0.42495
 trial     =   1.96978
 opt step  =   5.50080  (harmonic =   5.50080) maximal distance =0.00322734
 next E    =  -274.097128   (d E  =  -0.00036)


--------------------------------------------------------------------------------------------------------


    WAVPRE:  cpu time    0.0687: real time    0.0705
    FEWALD:  cpu time    0.0024: real time    0.0024
    ORTHCH:  cpu time    0.9001: real time    0.9008
     LOOP+:  cpu time   29.2060: real time   29.2533


--------------------------------------- Iteration      9(   1)  ---------------------------------------


    POTLOK:  cpu time    0.1316: real time    0.1330
    SETDIJ:  cpu time    0.1571: real time    0.1571
     EDDAV:  cpu time    5.1408: real time    5.1446
       DOS:  cpu time    0.0001: real time    0.0001
    CHARGE:  cpu time    0.2232: real time    0.2232
    MIXING:  cpu time    0.0042: real time    0.0042
    --------------------------------------------
      LOOP:  cpu time    5.6572: real time    5.6624

 eigenvalue-minimisations  :   480
 total energy-change (2. order) : 0.5654918E-03  (-0.1795593E-01)
 number of electron     383.9999996 magnetization 
 augmentation part      -49.4175877 magnetization 

 Broyden mixing:
  rms(total) = 0.81039E-02    rms(broyden)= 0.81030E-02
  rms(prec ) = 0.92281E-02
  weight for this iteration     100.00

 Free energy of the ion-electron system (eV)
  ---------------------------------------------------
  alpha Z        PSCENC =       310.04809462
  Ewald energy   TEWEN  =    -15412.44148022
  -Hartree energ DENC   =     -4574.10040633
  -exchange      EXHF   =         0.00000000
  -V(xc)+E(xc)   XCENC  =       447.04490923
  PAW double counting   =     11244.04072992   -10653.32793455
  entropy T*S    EENTRO =        -0.00000000
  eigenvalues    EBANDS =     -1859.61949242
  atomic energy  EATOM  =     20224.25915541
  Solvation  Ediel_sol  =         0.00000000
  ---------------------------------------------------
  free energy    TOTEN  =      -274.09642435 eV

  energy without entropy =     -274.09642435  energy(sigma->0) =     -274.09642435


--------------------------------------------------------------------------------------------------------




--------------------------------------- Iteration      9(   2)  ---------------------------------------


    POTLOK:  cpu time    0.1310: real time    0.1350
    SETDIJ:  cpu time    0.1573: real time    0.1575
     EDDAV:  cpu time    5.8147: real time    5.8199
       DOS:  cpu time    0.0002: real time    0.0002
    CHARGE:  cpu time    0.2234: real time    0.2237
    MIXING:  cpu time    0.0043: real time    0.0043
    --------------------------------------------
      LOOP:  cpu time    6.3309: real time    6.3406

 eigenvalue-minimisations  :   560
 total energy-change (2. order) :-0.7660209E-03  (-0.8328937E-03)
 number of electron     383.9999996 magnetization 
 augmentation part      -49.4176830 magnetization 

 Broyden mixing:
  rms(total) = 0.25797E-02    rms(broyden)= 0.25761E-02
  rms(prec ) = 0.34070E-02
  weight for this iteration     100.00

 eigenvalues of (default mixing * dielectric matrix)
  average eigenvalue GAMMA=   0.9067
  0.9067

 Free energy of the ion-electron system (eV)
  ---------------------------------------------------
  alpha Z        PSCENC =       310.04809462
  Ewald energy   TEWEN  =    -15412.44148022
  -Hartree energ DENC   =     -4574.10640463
  -exchange      EXHF   =         0.00000000
  -V(xc)+E(xc)   XCENC  =       447.04509388
  PAW double counting   =     11244.09906383   -10653.38689302
  entropy T*S    EENTRO =        -0.00000000
  eigenvalues    EBANDS =     -1859.61382024
  atomic energy  EATOM  =     20224.25915541
  Solvation  Ediel_sol  =         0.00000000
  ---------------------------------------------------
  free energy    TOTEN  =      -274.09719038 eV

  energy without entropy =     -274.09719038  energy(sigma->0) =     -274.09719038


--------------------------------------------------------------------------------------------------------




--------------------------------------- Iteration      9(   3)  ---------------------------------------


    POTLOK:  cpu time    0.1307: real time    0.1348
    SETDIJ:  cpu time    0.1573: real time    0.1574
     EDDAV:  cpu time    6.1482: real time    6.1541
       DOS:  cpu time    0.0003: real time    0.0003
    CHARGE:  cpu time    0.2236: real time    0.2237
    MIXING:  cpu time    0.0042: real time    0.0042
    --------------------------------------------
      LOOP:  cpu time    6.6643: real time    6.6744

 eigenvalue-minimisations  :   600
 total energy-change (2. order) : 0.4006055E-05  (-0.1319202E-04)
 number of electron     383.9999996 magnetization 
 augmentation part      -49.4174808 magnetization 

 Broyden mixing:
  rms(total) = 0.21845E-02    rms(broyden)= 0.21844E-02
  rms(prec ) = 0.28780E-02
  weight for this iteration     100.00

 eigenvalues of (default mixing * dielectric matrix)
  average eigenvalue GAMMA=   1.8199
  1.0486  2.5913

 Free energy of the ion-electron system (eV)
  ---------------------------------------------------
  alpha Z        PSCENC =       310.04809462
  Ewald energy   TEWEN  =    -15412.44148022
  -Hartree energ DENC   =     -4574.11373641
  -exchange      EXHF   =         0.00000000
  -V(xc)+E(xc)   XCENC  =       447.04513515
  PAW double counting   =     11244.13387287   -10653.42218947
  entropy T*S    EENTRO =        -0.00000000
  eigenvalues    EBANDS =     -1859.60603831
  atomic energy  EATOM  =     20224.25915541
  Solvation  Ediel_sol  =         0.00000000
  ---------------------------------------------------
  free energy    TOTEN  =      -274.09718637 eV

  energy without entropy =     -274.09718637  energy(sigma->0) =     -274.09718637


--------------------------------------------------------------------------------------------------------




--------------------------------------- Iteration      9(   4)  ---------------------------------------


    POTLOK:  cpu time    0.1308: real time    0.1354
    SETDIJ:  cpu time    0.1571: real time    0.1572
     EDDAV:  cpu time    5.4906: real time    5.4947
       DOS:  cpu time    0.0002: real time    0.0002
    CHARGE:  cpu time    0.2228: real time    0.2229
    MIXING:  cpu time    0.0051: real time    0.0052
    --------------------------------------------
      LOOP:  cpu time    6.0066: real time    6.0157

 eigenvalue-minimisations  :   520
 total energy-change (2. order) : 0.1788387E-04  (-0.8396309E-05)
 number of electron     383.9999996 magnetization 
 augmentation part      -49.4172603 magnetization 

 Broyden mixing:
  rms(total) = 0.72632E-03    rms(broyden)= 0.72631E-03
  rms(prec ) = 0.86710E-03
  weight for this iteration     100.00

 eigenvalues of (default mixing * dielectric matrix)
  average eigenvalue GAMMA=   1.7507
  3.3264  0.9629  0.9629

 Free energy of the ion-electron system (eV)
  ---------------------------------------------------
  alpha Z        PSCENC =       310.04809462
  Ewald energy   TEWEN  =    -15412.44148022
  -Hartree energ DENC   =     -4574.13327106
  -exchange      EXHF   =         0.00000000
  -V(xc)+E(xc)   XCENC  =       447.04571386
  PAW double counting   =     11244.22591536   -10653.51549364
  entropy T*S    EENTRO =        -0.00000000
  eigenvalues    EBANDS =     -1859.58580281
  atomic energy  EATOM  =     20224.25915541
  Solvation  Ediel_sol  =         0.00000000
  ---------------------------------------------------
  free energy    TOTEN  =      -274.09716849 eV

  energy without entropy =     -274.09716849  energy(sigma->0) =     -274.09716849


--------------------------------------------------------------------------------------------------------




--------------------------------------- Iteration      9(   5)  ---------------------------------------


    POTLOK:  cpu time    0.1309: real time    0.1349
    SETDIJ:  cpu time    0.1569: real time    0.1571
     EDDAV:  cpu time    4.8293: real time    4.8340
       DOS:  cpu time    0.0002: real time    0.0002
    --------------------------------------------
      LOOP:  cpu time    5.1173: real time    5.1261

 eigenvalue-minimisations  :   440
 total energy-change (2. order) :-0.2876077E-05  (-0.2221459E-05)
 number of electron     383.9999996 magnetization 
 augmentation part      -49.4172603 magnetization 

 Free energy of the ion-electron system (eV)
  ---------------------------------------------------
  alpha Z        PSCENC =       310.04809462
  Ewald energy   TEWEN  =    -15412.44148022
  -Hartree energ DENC   =     -4574.13622878
  -exchange      EXHF   =         0.00000000
  -V(xc)+E(xc)   XCENC  =       447.04595094
  PAW double counting   =     11244.25458166   -10653.54455527
  entropy T*S    EENTRO =        -0.00000000
  eigenvalues    EBANDS =     -1859.58268971
  atomic energy  EATOM  =     20224.25915541
  Solvation  Ediel_sol  =         0.00000000
  ---------------------------------------------------
  free energy    TOTEN  =      -274.09717136 eV

  energy without entropy =     -274.09717136  energy(sigma->0) =     -274.09717136


--------------------------------------------------------------------------------------------------------




 average (electrostatic) potential at core
  the test charge radii are     0.9406  1.4837  0.9748
  (the norm of the test charge is              1.0000)
       1 -92.6807       2 -92.6807       3 -94.2244       4 -94.2244       5 -94.0893
       6 -94.7243       7 -94.1105       8 -94.0531       9 -93.5680      10 -93.5680
      11 -93.6640      12 -93.6640      13 -94.1630      14 -94.0210      15 -94.0123
      16 -94.1597      17 -93.9865      18 -93.9865      19 -93.9816      20 -93.9816
      21 -94.7243      22 -94.0893      23 -94.0531      24 -94.1105      25 -93.9994
      26 -93.9993      27 -94.0173      28 -94.0174      29 -94.0210      30 -94.1630
      31 -94.1597      32 -94.0123      33 -93.7023      34 -93.7023      35 -94.0641
      36 -94.1281      37 -92.5386      38 -92.5386      39 -94.0683      40 -94.6545
      41 -93.9775      42 -93.9776      43 -94.1280      44 -94.0642      45 -94.0808
      46 -94.0808      47 -94.6545      48 -94.0683      49 -41.9819      50 -41.5393
      51 -41.8873      52 -41.9107      53 -41.9819      54 -41.8059      55 -41.8873
      56 -42.2132      57 -27.8257      58 -28.1172      59 -28.7410      60 -28.7714
      61 -27.8258      62 -28.1172      63 -28.8999      64 -28.3802      65 -28.6611
      66 -28.6624      67 -28.8999      68 -28.3803      69 -28.6611      70 -28.6624
      71 -28.7410      72 -28.7714      73 -28.5183      74 -28.7531      75 -27.9700
      76 -28.7531      77 -27.9700      78 -28.8394      79 -28.5183      80 -28.8394
 
 
 
 E-fermi :   0.4224     XC(G=0):  -7.8731     alpha+bet : -7.9187


 k-point     1 :       0.0000    0.0000    0.0000
  band No.  band energies     occupation 
      1     -14.6419      2.00000
      2     -14.3786      2.00000
      3     -14.1668      2.00000
      4     -14.1415      2.00000
      5     -14.0807      2.00000
      6     -14.0583      2.00000
      7     -14.0416      2.00000
      8     -13.9200      2.00000
      9     -13.8722      2.00000
     10     -13.8340      2.00000
     11     -13.8063      2.00000
     12     -13.7741      2.00000
     13     -13.7454      2.00000
     14     -13.7308      2.00000
     15     -13.7212      2.00000
     16     -13.6803      2.00000
     17     -13.6756      2.00000
     18     -13.6617      2.00000
     19     -13.6469      2.00000
     20     -13.5994      2.00000
     21     -13.5953      2.00000
     22     -13.5822      2.00000
     23     -13.5791      2.00000
     24     -13.5521      2.00000
     25     -13.5446      2.00000
     26     -13.4992      2.00000
     27     -13.4903      2.00000
     28     -13.4588      2.00000
     29     -13.4543      2.00000
     30     -13.4456      2.00000
     31     -13.4136      2.00000
     32     -13.4081      2.00000
     33     -13.4020      2.00000
     34     -13.3785      2.00000
     35     -13.3582      2.00000
     36     -13.3439      2.00000
     37     -13.3216      2.00000
     38     -13.3017      2.00000
     39     -13.2862      2.00000
     40     -13.2739      2.00000
     41     -13.1719      2.00000
     42     -13.1184      2.00000
     43     -12.9589      2.00000
     44     -12.9296      2.00000
     45     -12.2879      2.00000
     46     -12.2650      2.00000
     47     -12.1448      2.00000
     48     -12.1401      2.00000
     49      -5.5949      2.00000
     50      -5.3083      2.00000
     51      -5.2577      2.00000
     52      -5.1482      2.00000
     53      -5.1214      2.00000
     54      -5.0919      2.00000
     55      -4.9918      2.00000
     56      -4.6689      2.00000
     57      -3.8627      2.00000
     58      -3.6780      2.00000
     59      -3.6764      2.00000
     60      -3.4806      2.00000
     61      -3.4206      2.00000
     62      -3.3910      2.00000
     63      -3.3901      2.00000
     64      -3.3660      2.00000
     65      -3.2694      2.00000
     66      -3.2484      2.00000
     67      -3.2276      2.00000
     68      -3.2275      2.00000
     69      -3.1786      2.00000
     70      -3.0650      2.00000
     71      -3.0412      2.00000
     72      -3.0098      2.00000
     73      -3.0055      2.00000
     74      -2.9710      2.00000
     75      -2.9555      2.00000
     76      -2.8963      2.00000
     77      -2.8230      2.00000
     78      -2.7582      2.00000
     79      -2.7402      2.00000
     80      -2.7340      2.00000
     81      -2.6553      2.00000
     82      -2.6203      2.00000
     83      -2.6139      2.00000
     84      -2.5932      2.00000
     85      -2.5664      2.00000
     86      -2.5529      2.00000
     87      -2.5018      2.00000
     88      -2.4542      2.00000
     89      -2.4131      2.00000
     90      -2.3906      2.00000
     91      -2.3671      2.00000
     92      -2.3502      2.00000
     93      -2.3224      2.00000
     94      -2.3141      2.00000
     95      -2.3055      2.00000
     96      -2.3052      2.00000
     97      -2.2541      2.00000
     98      -2.2209      2.00000
     99      -2.2169      2.00000
    100      -2.1932      2.00000
    101      -2.1632      2.00000
    102      -2.1446      2.00000
    103      -2.1212      2.00000
    104      -2.0641      2.00000
    105      -2.0183      2.00000
    106      -2.0036      2.00000
    107      -1.9703      2.00000
    108      -1.9534      2.00000
    109      -1.9310      2.00000
    110      -1.9119      2.00000
    111      -1.9038      2.00000
    112      -1.8889      2.00000
    113      -1.8557      2.00000
    114      -1.8240      2.00000
    115      -1.8229      2.00000
    116      -1.7927      2.00000
    117      -1.7747      2.00000
    118      -1.7207      2.00000
    119      -1.7022      2.00000
    120      -1.6859      2.00000
    121      -1.6752      2.00000
    122      -1.6743      2.00000
    123      -1.6468      2.00000
    124      -1.6416      2.00000
    125      -1.6106      2.00000
    126      -1.6067      2.00000
    127      -1.5808      2.00000
    128      -1.5573      2.00000
    129      -1.5505      2.00000
    130      -1.5281      2.00000
    131      -1.5191      2.00000
    132      -1.5128      2.00000
    133      -1.4889      2.00000
    134      -1.4635      2.00000
    135      -1.4487      2.00000
    136      -1.4389      2.00000
    137      -1.4314      2.00000
    138      -1.3911      2.00000
    139      -1.3909      2.00000
    140      -1.3803      2.00000
    141      -1.3497      2.00000
    142      -1.3486      2.00000
    143      -1.3319      2.00000
    144      -1.3312      2.00000
    145      -1.3074      2.00000
    146      -1.2983      2.00000
    147      -1.2815      2.00000
    148      -1.2670      2.00000
    149      -1.2530      2.00000
    150      -1.2432      2.00000
    151      -1.2274      2.00000
    152      -1.2106      2.00000
    153      -1.1956      2.00000
    154      -1.1811      2.00000
    155      -1.1781      2.00000
    156      -1.1579      2.00000
    157      -1.1485      2.00000
    158      -1.1186      2.00000
    159      -1.0946      2.00000
    160      -1.0819      2.00000
    161      -1.0812      2.00000
    162      -1.0749      2.00000
    163      -1.0595      2.00000
    164      -1.0548      2.00000
    165      -1.0129      2.00000
    166      -0.9938      2.00000
    167      -0.9806      2.00000
    168      -0.9728      2.00000
    169      -0.9466      2.00000
    170      -0.9318      2.00000
    171      -0.9207      2.00000
    172      -0.9056      2.00000
    173      -0.8814      2.00000
    174      -0.8613      2.00000
    175      -0.8318      2.00000
    176      -0.8016      2.00000
    177      -0.7947      2.00000
    178      -0.7600      2.00000
    179      -0.7547      2.00000
    180      -0.6720      2.00000
    181      -0.6701      2.00000
    182      -0.6002      2.00000
    183      -0.5962      2.00000
    184      -0.5239      2.00000
    185      -0.3626      2.00000
    186      -0.3531      2.00000
    187      -0.3379      2.00000
    188      -0.2728      2.00000
    189      -0.2410      2.00000
    190      -0.2246      2.00000
    191      -0.1608      2.00000
    192      -0.0641      2.00000
    193       2.4821      0.00000
    194       2.8000      0.00000
    195       2.8186      0.00000
    196       2.9390      0.00000
    197       3.1373      0.00000
    198       3.1482      0.00000
    199       3.2237      0.00000
    200       3.4287      0.00000
    201       5.6773      0.00000
    202       5.8138      0.00000
    203       5.9149      0.00000
    204       5.9626      0.00000
    205       6.0652      0.00000
    206       6.0756      0.00000
    207       6.1359      0.00000
    208       6.1866      0.00000
    209       6.2656      0.00000
    210       6.3707      0.00000
    211       6.4907      0.00000
    212       6.5370      0.00000
    213       6.6339      0.00000
    214       6.6410      0.00000
    215       6.6989      0.00000
    216       6.7437      0.00000
    217       6.8260      0.00000
    218       6.8362      0.00000
    219       6.9200      0.00000
    220       6.9723      0.00000
    221       6.9903      0.00000
    222       7.0516      0.00000
    223       7.1800      0.00000
    224       7.2360      0.00000
    225       7.2693      0.00000
    226       7.3654      0.00000
    227       7.4428      0.00000
    228       7.4618      0.00000
    229       7.5415      0.00000
    230       7.5590      0.00000
    231       7.6024      0.00000
    232       7.6979      0.00000
    233       7.7848      0.00000
    234       7.8055      0.00000
    235       7.8217      0.00000
    236       7.8778      0.00000
    237       7.8861      0.00000
    238       7.9056      0.00000
    239       7.9840      0.00000
    240       8.0073      0.00000


--------------------------------------------------------------------------------------------------------


 soft charge-density along one line, spin component           1
         0         1         2         3         4         5         6         7         8         9
 total charge-density along one line
 
 pseudopotential strength for first ion, spin component:           1
 47.403  -0.016  -0.003   0.019   0.003  -0.000   0.000   0.000
 -0.016   0.019  -0.000   0.000   0.000  -0.000   0.000   0.000
 -0.003  -0.000   9.108   0.000  -0.000   0.002  -0.000   0.000
  0.019   0.000   0.000   9.105   0.000  -0.000   0.002  -0.000
  0.003   0.000  -0.000   0.000   9.109   0.000  -0.000   0.002
 -0.000  -0.000   0.002  -0.000   0.000   0.035   0.000   0.000
  0.000   0.000  -0.000   0.002  -0.000   0.000   0.035   0.000
  0.000   0.000   0.000  -0.000   0.002   0.000   0.000   0.035
 total augmentation occupancy for first ion, spin component:           1
  1.911   0.427   0.009  -0.060  -0.010   0.011  -0.066  -0.012
  0.427   0.249  -0.054   0.335   0.057   0.013  -0.099  -0.023
  0.009  -0.054   1.759  -0.002   0.003  -0.398  -0.007   0.002
 -0.060   0.335  -0.002   1.797  -0.001  -0.007  -0.330  -0.010
 -0.010   0.057   0.003  -0.001   1.750   0.002  -0.010  -0.422
  0.011   0.013  -0.398  -0.007   0.002   0.101   0.003  -0.000
 -0.066  -0.099  -0.007  -0.330  -0.010   0.003   0.078   0.006
 -0.012  -0.023   0.002  -0.010  -0.422  -0.000   0.006   0.114


------------------------ aborting loop because EDIFF is reached ----------------------------------------


 


 total charge     
 
# of ion       s       p       d       tot
------------------------------------------
    1        1.589   3.591   0.000   5.180
    2        1.589   3.591   0.000   5.180
    3        1.599   3.535   0.000   5.134
    4        1.599   3.535   0.000   5.134
    5        1.598   3.544   0.000   5.141
    6        1.602   3.527   0.000   5.130
    7        1.598   3.539   0.000   5.137
    8        1.599   3.537   0.000   5.135
    9        1.597   3.539   0.000   5.136
   10        1.597   3.539   0.000   5.136
   11        1.594   3.555   0.000   5.149
   12        1.594   3.555   0.000   5.149
   13        1.597   3.549   0.000   5.145
   14        1.598   3.545   0.000   5.143
   15        1.599   3.543   0.000   5.142
   16        1.596   3.550   0.000   5.146
   17        1.597   3.544   0.000   5.140
   18        1.597   3.544   0.000   5.140
   19        1.595   3.548   0.000   5.144
   20        1.595   3.548   0.000   5.144
   21        1.602   3.527   0.000   5.130
   22        1.598   3.544   0.000   5.141
   23        1.599   3.537   0.000   5.135
   24        1.598   3.539   0.000   5.137
   25        1.596   3.561   0.000   5.156
   26        1.596   3.561   0.000   5.156
   27        1.596   3.546   0.000   5.142
   28        1.596   3.546   0.000   5.142
   29        1.598   3.545   0.000   5.143
   30        1.597   3.549   0.000   5.145
   31        1.596   3.550   0.000   5.146
   32        1.599   3.543   0.000   5.142
   33        1.599   3.539   0.000   5.139
   34        1.599   3.539   0.000   5.139
   35        1.596   3.552   0.000   5.148
   36        1.595   3.562   0.000   5.157
   37        1.590   3.591   0.000   5.181
   38        1.590   3.591   0.000   5.181
   39        1.599   3.537   0.000   5.136
   40        1.604   3.522   0.000   5.126
   41        1.600   3.540   0.000   5.140
   42        1.600   3.540   0.000   5.140
   43        1.595   3.562   0.000   5.157
   44        1.596   3.552   0.000   5.148
   45        1.596   3.557   0.000   5.153
   46        1.596   3.557   0.000   5.153
   47        1.604   3.522   0.000   5.126
   48        1.599   3.537   0.000   5.136
   49        0.975   1.144   0.373   2.492
   50        0.966   1.106   0.359   2.431
   51        0.971   1.149   0.383   2.502
   52        0.962   1.116   0.369   2.447
   53        0.975   1.144   0.373   2.492
   54        0.970   1.134   0.375   2.479
   55        0.971   1.149   0.383   2.502
   56        0.974   1.143   0.371   2.487
   57        0.071   0.129   0.000   0.200
   58        0.071   0.133   0.000   0.204
   59        0.056   0.102   0.000   0.158
   60        0.058   0.104   0.000   0.162
   61        0.071   0.129   0.000   0.200
   62        0.071   0.133   0.000   0.204
   63        0.056   0.101   0.000   0.157
   64        0.064   0.115   0.000   0.179
   65        0.061   0.110   0.000   0.171
   66        0.061   0.112   0.000   0.173
   67        0.056   0.101   0.000   0.157
   68        0.064   0.115   0.000   0.179
   69        0.061   0.110   0.000   0.171
   70        0.061   0.112   0.000   0.173
   71        0.056   0.102   0.000   0.158
   72        0.058   0.104   0.000   0.162
   73        0.062   0.110   0.000   0.172
   74        0.060   0.107   0.000   0.167
   75        0.068   0.126   0.000   0.195
   76        0.060   0.107   0.000   0.167
   77        0.068   0.126   0.000   0.195
   78        0.060   0.108   0.000   0.168
   79        0.062   0.110   0.000   0.172
   80        0.060   0.108   0.000   0.168
--------------------------------------------------
tot         85.914 182.103   2.985 271.002
 
    CHARGE:  cpu time    0.2212: real time    0.2213
    FORLOC:  cpu time    0.0569: real time    0.0570
    FORNL :  cpu time    1.4303: real time    1.4386
    STRESS:  cpu time    7.0569: real time    7.0623
    FORCOR:  cpu time    0.1688: real time    0.1688
    FORHAR:  cpu time    0.0821: real time    0.0821
    MIXING:  cpu time    0.0040: real time    0.0040
    OFIELD:  cpu time    0.0000: real time    0.0000

  FORCE on cell =-STRESS in cart. coord.  units (eV):
  Direction    XX          YY          ZZ          XY          YZ          ZX
  --------------------------------------------------------------------------------------
  Alpha Z   310.04809   310.04809   310.04809
  Ewald   -5106.60614 -5451.09518 -4854.82991    -0.00000    -0.00000    23.65071
  Hartree  1544.49769  1336.99682  1692.63949    -0.00000     0.00000     8.46685
  E(xc)   -1403.66044 -1403.56865 -1405.04299     0.00000     0.00000     0.16640
  Local   -4338.30913 -3801.44089 -4720.55058    -0.00000     0.00000   -33.60774
  n-local  4203.97788  4200.69415  4209.59838    -0.00000     0.00000     0.18932
  augment  -980.06559  -981.09318  -979.48973    -0.00000     0.00000    -0.08781
  Kinetic  5770.99100  5792.48467  5748.22656     0.00001     0.00000     1.35740
  Fock        0.00000     0.00000     0.00000     0.00000     0.00000     0.00000
  -------------------------------------------------------------------------------------
  Total       0.87336     3.02586     0.59931     0.00000     0.00000     0.13513
  in kB       0.75185     2.60488     0.51593     0.00000     0.00000     0.11633
  external pressure =        1.29 kB  Pullay stress =        0.00 kB


 VOLUME and BASIS-vectors are now :
 -----------------------------------------------------------------------------
  energy-cutoff  :      520.00
  volume of cell :     1861.11
      direct lattice vectors                 reciprocal lattice vectors
    13.459017910  0.000000000 -0.273085008     0.074898101  0.000000000  0.029495859
     0.000000000 11.456071877  0.000000000     0.000000000  0.087289955  0.000000000
    -4.791777054  0.000000000 12.167640179     0.001680979  0.000000000  0.082847197

  length of vectors
    13.461788088 11.456071877 13.077178399     0.080496777  0.087289955  0.082864248


 FORCES acting on ions
    electron-ion (+dipol)            ewald-force                    non-local-force                 convergence-correction
 -----------------------------------------------------------------------------------------------
   0.141E+02 0.735E+01 0.546E+02   -.143E+02 -.713E+01 -.560E+02   0.160E+00 -.218E+00 0.145E+01   -.180E-02 -.270E-02 0.172E-02
   -.141E+02 0.735E+01 -.546E+02   0.143E+02 -.713E+01 0.560E+02   -.160E+00 -.218E+00 -.145E+01   0.180E-02 -.270E-02 -.172E-02
   0.217E+02 -.724E+02 0.129E+01   -.227E+02 0.745E+02 -.291E+01   0.107E+01 -.212E+01 0.162E+01   0.205E-02 0.192E-02 -.116E-02
   -.217E+02 -.724E+02 -.129E+01   0.227E+02 0.745E+02 0.291E+01   -.107E+01 -.212E+01 -.162E+01   -.205E-02 0.192E-02 0.116E-02
   -.404E+02 -.418E+02 0.377E+01   0.413E+02 0.437E+02 -.295E+01   -.815E+00 -.184E+01 -.815E+00   0.745E-03 -.299E-03 0.479E-03
   -.326E+02 -.388E+02 0.272E+02   0.336E+02 0.397E+02 -.287E+02   -.997E+00 -.918E+00 0.146E+01   0.380E-03 0.670E-03 -.206E-02
   0.224E+02 0.762E+02 -.462E+01   -.235E+02 -.783E+02 0.379E+01   0.113E+01 0.211E+01 0.839E+00   -.623E-03 0.194E-02 -.930E-03
   -.252E+02 0.516E+02 0.160E+02   0.261E+02 -.540E+02 -.148E+02   -.852E+00 0.230E+01 -.123E+01   -.498E-02 0.344E-02 -.828E-03
   -.182E+02 -.448E+02 -.256E+01   0.189E+02 0.466E+02 0.344E+01   -.730E+00 -.177E+01 -.881E+00   -.443E-02 -.318E-02 -.193E-02
   0.182E+02 -.448E+02 0.256E+01   -.189E+02 0.466E+02 -.344E+01   0.730E+00 -.177E+01 0.881E+00   0.443E-02 -.318E-02 0.193E-02
   0.216E+02 0.267E+02 -.684E+01   -.221E+02 -.278E+02 0.662E+01   0.493E+00 0.108E+01 0.218E+00   -.548E-03 -.267E-02 -.133E-03
   -.216E+02 0.267E+02 0.684E+01   0.221E+02 -.278E+02 -.662E+01   -.493E+00 0.108E+01 -.218E+00   0.548E-03 -.267E-02 0.133E-03
   -.265E+02 -.402E+02 0.410E+01   0.277E+02 0.418E+02 -.363E+01   -.118E+01 -.158E+01 -.461E+00   -.150E-02 -.248E-02 -.301E-02
   0.196E+02 -.430E+02 -.149E+02   -.206E+02 0.450E+02 0.141E+02   0.985E+00 -.197E+01 0.791E+00   -.129E-02 -.281E-02 0.265E-02
   0.239E+02 0.589E+02 0.103E+01   -.250E+02 -.612E+02 -.164E+01   0.107E+01 0.228E+01 0.614E+00   -.108E-03 0.243E-02 0.206E-02
   -.156E+02 0.471E+02 -.231E+01   0.164E+02 -.486E+02 0.315E+01   -.773E+00 0.151E+01 -.832E+00   0.346E-03 0.246E-02 -.725E-03
   -.248E+02 -.490E+02 0.736E+01   0.258E+02 0.506E+02 -.648E+01   -.980E+00 -.156E+01 -.880E+00   0.128E-03 -.383E-02 -.917E-03
   0.248E+02 -.490E+02 -.736E+01   -.258E+02 0.506E+02 0.648E+01   0.980E+00 -.156E+01 0.880E+00   -.128E-03 -.383E-02 0.917E-03
   0.188E+02 0.362E+02 -.699E+01   -.196E+02 -.377E+02 0.636E+01   0.787E+00 0.145E+01 0.630E+00   0.786E-03 0.220E-02 0.236E-02
   -.188E+02 0.362E+02 0.699E+01   0.196E+02 -.377E+02 -.636E+01   -.787E+00 0.145E+01 -.630E+00   -.786E-03 0.220E-02 -.236E-02
   0.326E+02 -.388E+02 -.272E+02   -.336E+02 0.397E+02 0.287E+02   0.997E+00 -.918E+00 -.146E+01   -.380E-03 0.670E-03 0.206E-02
   0.404E+02 -.418E+02 -.377E+01   -.413E+02 0.437E+02 0.295E+01   0.815E+00 -.184E+01 0.815E+00   -.745E-03 -.299E-03 -.479E-03
   0.252E+02 0.516E+02 -.160E+02   -.261E+02 -.540E+02 0.148E+02   0.852E+00 0.230E+01 0.123E+01   0.498E-02 0.344E-02 0.828E-03
   -.224E+02 0.762E+02 0.462E+01   0.235E+02 -.783E+02 -.379E+01   -.113E+01 0.211E+01 -.839E+00   0.623E-03 0.194E-02 0.930E-03
   -.253E+02 -.371E+02 0.538E+01   0.256E+02 0.386E+02 -.485E+01   -.298E+00 -.146E+01 -.517E+00   -.333E-02 -.297E-02 -.466E-02
   0.253E+02 -.371E+02 -.538E+01   -.256E+02 0.386E+02 0.485E+01   0.298E+00 -.146E+01 0.517E+00   0.333E-02 -.297E-02 0.466E-02
   0.247E+02 0.292E+02 -.745E+01   -.256E+02 -.304E+02 0.650E+01   0.847E+00 0.119E+01 0.945E+00   0.123E-03 0.531E-02 0.188E-02
   -.247E+02 0.292E+02 0.745E+01   0.256E+02 -.304E+02 -.650E+01   -.847E+00 0.119E+01 -.945E+00   -.123E-03 0.531E-02 -.188E-02
   -.196E+02 -.430E+02 0.149E+02   0.206E+02 0.450E+02 -.141E+02   -.985E+00 -.197E+01 -.791E+00   0.129E-02 -.281E-02 -.265E-02
   0.265E+02 -.402E+02 -.410E+01   -.277E+02 0.418E+02 0.363E+01   0.118E+01 -.158E+01 0.461E+00   0.150E-02 -.248E-02 0.301E-02
   0.156E+02 0.471E+02 0.231E+01   -.164E+02 -.486E+02 -.315E+01   0.773E+00 0.151E+01 0.832E+00   -.346E-03 0.246E-02 0.725E-03
   -.239E+02 0.589E+02 -.103E+01   0.250E+02 -.612E+02 0.164E+01   -.107E+01 0.228E+01 -.614E+00   0.108E-03 0.243E-02 -.206E-02
   -.532E+02 -.120E+02 0.832E+00   0.558E+02 0.121E+02 -.130E+01   -.262E+01 -.408E-01 0.464E+00   0.127E-02 -.314E-02 0.305E-02
   0.532E+02 -.120E+02 -.832E+00   -.558E+02 0.121E+02 0.130E+01   0.262E+01 -.408E-01 -.464E+00   -.127E-02 -.314E-02 -.305E-02
   -.444E+02 0.757E+01 -.183E+02   0.459E+02 -.780E+01 0.176E+02   -.152E+01 0.230E+00 0.729E+00   0.156E-02 -.127E-02 0.249E-02
   0.384E+02 0.708E+01 0.131E+02   -.399E+02 -.679E+01 -.127E+02   0.144E+01 -.286E+00 -.331E+00   -.125E-02 0.308E-02 -.176E-02
   0.875E+01 -.303E+02 -.570E+02   -.877E+01 0.303E+02 0.586E+02   0.206E-01 -.230E-01 -.157E+01   0.496E-03 -.222E-02 0.327E-02
   -.875E+01 -.303E+02 0.570E+02   0.877E+01 0.303E+02 -.586E+02   -.206E-01 -.230E-01 0.157E+01   -.496E-03 -.222E-02 -.327E-02
   -.561E+02 0.520E+01 -.172E+02   0.587E+02 -.486E+01 0.165E+02   -.264E+01 -.346E+00 0.761E+00   -.336E-03 0.466E-02 0.432E-03
   0.159E+02 0.633E+02 -.210E+02   -.167E+02 -.648E+02 0.224E+02   0.770E+00 0.159E+01 -.139E+01   -.360E-02 -.168E-02 -.688E-03
   -.545E+02 -.477E+01 -.142E+02   0.572E+02 0.463E+01 0.139E+02   -.273E+01 0.145E+00 0.299E+00   0.141E-03 -.649E-04 0.330E-02
   0.545E+02 -.477E+01 0.142E+02   -.572E+02 0.463E+01 -.139E+02   0.273E+01 0.145E+00 -.299E+00   -.141E-03 -.649E-04 -.330E-02
   -.384E+02 0.708E+01 -.131E+02   0.399E+02 -.679E+01 0.127E+02   -.144E+01 -.286E+00 0.331E+00   0.125E-02 0.308E-02 0.176E-02
   0.444E+02 0.757E+01 0.183E+02   -.459E+02 -.780E+01 -.176E+02   0.152E+01 0.230E+00 -.729E+00   -.156E-02 -.127E-02 -.249E-02
   -.539E+02 -.837E+01 -.243E+02   0.557E+02 0.834E+01 0.239E+02   -.178E+01 0.361E-01 0.410E+00   0.822E-03 -.501E-03 0.170E-02
   0.539E+02 -.837E+01 0.243E+02   -.557E+02 0.834E+01 -.239E+02   0.178E+01 0.361E-01 -.410E+00   -.822E-03 -.501E-03 -.170E-02
   -.159E+02 0.633E+02 0.210E+02   0.167E+02 -.648E+02 -.224E+02   -.770E+00 0.159E+01 0.139E+01   0.360E-02 -.168E-02 0.688E-03
   0.561E+02 0.520E+01 0.172E+02   -.587E+02 -.486E+01 -.165E+02   0.264E+01 -.346E+00 -.761E+00   0.336E-03 0.466E-02 -.432E-03
   -.765E+01 0.947E+01 0.142E+01   0.927E+01 -.104E+02 -.131E+01   -.163E+01 0.972E+00 -.123E+00   -.157E-04 0.186E-03 0.208E-04
   -.490E-06 -.213E+01 -.937E-06   -.358E-05 0.329E+01 -.690E-05   0.000E+00 -.116E+01 0.000E+00   -.893E-09 -.449E-03 0.276E-09
   -.300E+01 0.325E+01 -.372E+01   0.266E+01 -.340E+01 0.278E+01   0.347E+00 0.146E+00 0.947E+00   -.241E-03 0.551E-03 -.105E-03
   0.641E-06 -.269E+01 0.980E-06   0.469E-05 0.308E+01 0.720E-05   0.000E+00 -.378E+00 0.000E+00   0.453E-09 -.821E-03 -.748E-09
   0.765E+01 0.947E+01 -.142E+01   -.927E+01 -.104E+02 0.131E+01   0.163E+01 0.972E+00 0.123E+00   0.157E-04 0.186E-03 -.208E-04
   -.494E-06 0.281E+01 -.893E-06   -.362E-05 -.261E+01 -.656E-05   0.000E+00 -.199E+00 0.000E+00   -.953E-09 0.464E-03 0.113E-08
   0.300E+01 0.325E+01 0.372E+01   -.266E+01 -.340E+01 -.278E+01   -.347E+00 0.146E+00 -.947E+00   0.241E-03 0.551E-03 0.105E-03
   0.235E-07 -.125E+02 0.146E-05   0.138E-06 0.139E+02 0.108E-04   0.000E+00 -.136E+01 0.000E+00   0.964E-10 -.116E-03 0.979E-09
   0.536E+00 -.873E+01 0.272E+01   -.154E+00 0.783E+01 -.340E+01   -.386E+00 0.898E+00 0.679E+00   0.545E-04 -.140E-03 0.385E-04
   0.321E+01 0.470E+01 -.379E+00   -.273E+01 -.351E+01 0.584E+00   -.479E+00 -.118E+01 -.201E+00   0.360E-04 -.669E-04 -.870E-04
   -.311E+01 -.409E+01 -.468E+01   0.297E+01 0.399E+01 0.461E+01   0.136E+00 0.954E-01 0.779E-01   -.808E-04 -.379E-04 0.108E-03
   -.827E+00 0.104E+02 -.123E+01   0.777E+00 -.970E+01 0.124E+01   0.521E-01 -.682E+00 -.409E-02   -.591E-04 0.209E-03 -.129E-03
   -.536E+00 -.873E+01 -.272E+01   0.154E+00 0.783E+01 0.340E+01   0.386E+00 0.898E+00 -.679E+00   -.545E-04 -.140E-03 -.385E-04
   -.321E+01 0.470E+01 0.379E+00   0.273E+01 -.351E+01 -.584E+00   0.479E+00 -.118E+01 0.201E+00   -.360E-04 -.669E-04 0.870E-04
   0.179E+01 -.547E+01 -.347E+01   -.146E+01 0.511E+01 0.303E+01   -.340E+00 0.364E+00 0.435E+00   -.132E-03 0.967E-05 -.131E-03
   -.639E+00 -.653E-02 -.394E-01   0.108E+00 -.794E+00 -.264E+00   0.530E+00 0.799E+00 0.303E+00   -.448E-05 0.971E-04 0.127E-03
   -.130E+01 -.809E+01 0.825E+00   0.136E+01 0.742E+01 -.744E+00   -.553E-01 0.660E+00 -.783E-01   -.828E-04 -.231E-03 0.200E-03
   0.392E+00 0.812E+01 -.662E+00   -.416E+00 -.734E+01 0.647E+00   0.248E-01 -.779E+00 0.143E-01   -.381E-04 0.100E-03 -.399E-04
   -.179E+01 -.547E+01 0.347E+01   0.146E+01 0.511E+01 -.303E+01   0.340E+00 0.364E+00 -.435E+00   0.132E-03 0.967E-05 0.131E-03
   0.639E+00 -.653E-02 0.394E-01   -.108E+00 -.794E+00 0.264E+00   -.530E+00 0.799E+00 -.303E+00   0.448E-05 0.971E-04 -.127E-03
   0.130E+01 -.809E+01 -.825E+00   -.136E+01 0.742E+01 0.744E+00   0.553E-01 0.660E+00 0.783E-01   0.828E-04 -.231E-03 -.200E-03
   -.392E+00 0.812E+01 0.662E+00   0.416E+00 -.734E+01 -.647E+00   -.248E-01 -.779E+00 -.143E-01   0.381E-04 0.100E-03 0.399E-04
   0.311E+01 -.409E+01 0.468E+01   -.297E+01 0.399E+01 -.461E+01   -.136E+00 0.954E-01 -.779E-01   0.809E-04 -.379E-04 -.108E-03
   0.827E+00 0.104E+02 0.123E+01   -.777E+00 -.970E+01 -.124E+01   -.521E-01 -.682E+00 0.409E-02   0.591E-04 0.209E-03 0.129E-03
   0.465E+01 0.445E+01 0.437E+01   -.496E+01 -.337E+01 -.451E+01   0.313E+00 -.109E+01 0.141E+00   0.241E-04 -.124E-03 0.101E-03
   -.272E+01 0.627E+00 -.481E+00   0.264E+01 -.677E+00 0.372E+00   0.841E-01 0.502E-01 0.110E+00   -.104E-04 0.958E-04 0.176E-03
   -.544E+01 -.170E+01 -.428E+00   0.443E+01 0.175E+01 0.786E+00   0.101E+01 -.559E-01 -.355E+00   0.130E-04 -.237E-03 0.753E-05
   0.272E+01 0.627E+00 0.481E+00   -.264E+01 -.677E+00 -.372E+00   -.841E-01 0.502E-01 -.110E+00   0.104E-04 0.958E-04 -.176E-03
   0.544E+01 -.170E+01 0.428E+00   -.443E+01 0.175E+01 -.786E+00   -.101E+01 -.559E-01 0.355E+00   -.130E-04 -.237E-03 -.753E-05
   0.941E+00 0.190E+01 0.339E+00   -.809E+00 -.222E+01 -.341E-02   -.133E+00 0.317E+00 -.336E+00   0.615E-05 0.180E-03 0.147E-03
   -.465E+01 0.445E+01 -.437E+01   0.496E+01 -.337E+01 0.451E+01   -.313E+00 -.109E+01 -.141E+00   -.241E-04 -.124E-03 -.101E-03
   -.941E+00 0.190E+01 -.339E+00   0.809E+00 -.222E+01 0.340E-02   0.133E+00 0.317E+00 0.336E+00   -.615E-05 0.180E-03 -.147E-03
 -----------------------------------------------------------------------------------------------
   0.274E-03 0.249E+01 -.697E-03   -.432E-13 -.253E-13 0.545E-13   -.500E-15 -.249E+01 0.111E-15   -.185E-08 -.314E-02 -.342E-08
 
 
 POSITION                                       TOTAL-FORCE (eV/Angst)
 -----------------------------------------------------------------------------------
      1.01365      1.91862      1.90247         0.001247     -0.000678      0.005625
      7.65359      1.91862      9.99209        -0.001247     -0.000678     -0.005625
      7.77207      9.34178     10.18510        -0.003139      0.001805      0.001537
      0.89517      9.34178      1.70946         0.003139      0.001805     -0.001537
      4.19783      7.46015      1.64471        -0.001639      0.000914      0.000427
     -2.65685      7.54732     10.69648         0.002294     -0.002041      0.006266
     -2.33600      4.07507     10.44910         0.001776      0.001882      0.005898
      4.22921      3.97452      1.60147         0.004571     -0.012265      0.008332
     -1.48709      1.72450      7.74337        -0.003698     -0.002198      0.000243
     10.15433      1.72450      4.15119         0.003698     -0.002198     -0.000243
     10.07870      9.61692      4.15974         0.000178     -0.001867     -0.000440
     -1.41146      9.61692      7.73482        -0.000178     -0.001867      0.000440
      2.05076      7.46559      7.58835         0.001630      0.000913     -0.001311
     -0.04084      7.40102      4.47187        -0.002684      0.005718     -0.001761
     -0.08927      3.92809      4.63338         0.000048     -0.004762      0.004369
      1.88053      4.01634      7.76714         0.000809      0.001388     -0.000203
      7.67922      1.75983      1.49674         0.001293     -0.000224     -0.002067
      0.98802      1.75983     10.39781        -0.001293     -0.000224      0.002067
      1.04698      9.71617     10.39169        -0.001765     -0.002154     -0.000467
      7.62026      9.71617      1.50287         0.001765     -0.002154      0.000467
     11.32409      7.54732      1.19807        -0.002294     -0.002041     -0.006266
      4.46941      7.46015     10.24985         0.001639      0.000914     -0.000427
      4.43803      3.97452     10.29309        -0.004571     -0.012265     -0.008332
     11.00324      4.07507      1.44546        -0.001776      0.001882     -0.005898
      5.08287      1.80886      7.57684         0.000887      0.006386      0.002916
      3.58438      1.80886      4.31772        -0.000887      0.006386     -0.002916
      3.37842      9.75738      4.19798        -0.002564     -0.000006      0.000264
      5.28882      9.75738      7.69658         0.002564     -0.000006     -0.000264
      8.70808      7.40102      7.42268         0.002684      0.005718      0.001761
      6.61648      7.46559      4.30620        -0.001630      0.000913      0.001311
      6.78671      4.01634      4.12741        -0.000809      0.001388      0.000203
      8.75651      3.92809      7.26117        -0.000048     -0.004762     -0.004369
     -0.33401     11.32953      4.64792        -0.000460     -0.006550      0.001768
      9.00125     11.32953      7.24663         0.000460     -0.006550     -0.001768
      2.98557      5.62487      4.50967         0.002070     -0.001265      0.003012
     -1.12458      5.88654      7.61537        -0.001280      0.001944      0.001430
     -2.53721     11.33032     10.68841        -0.001561     -0.002134     -0.002677
     11.20445     11.33032      1.20615         0.001561     -0.002134      0.002677
      0.60184      5.97696     10.66206        -0.000519      0.003519      0.002693
      1.12109      5.82308      1.32556        -0.003719      0.004094     -0.003507
      6.45321     11.37261      4.59080        -0.000532     -0.000133     -0.001017
      2.21403     11.37261      7.30375         0.000532     -0.000133      0.001017
      9.79182      5.88654      4.27918         0.001280      0.001944     -0.001430
      5.68167      5.62487      7.38488        -0.002070     -0.001265     -0.003012
      4.01460      0.03786     10.53404        -0.000027      0.002676     -0.000501
      4.65264      0.03786      1.36052         0.000027      0.002676      0.000501
      7.54615      5.82308     10.56899         0.003719      0.004094      0.003507
      8.06541      5.97696      1.23249         0.000519      0.003519     -0.002693
      3.41434      5.68619     -0.00847        -0.010663      0.010985     -0.017286
     -2.39589      0.00886      6.08382         0.000000     -0.003382      0.000000
      0.95253      5.71000      6.07042         0.003655     -0.005677      0.007184
      6.72951      0.03965     -0.13654         0.000000      0.007216      0.000000
      5.25290      5.68619     11.90302         0.010663      0.010985      0.017286
      4.33362     11.39985      5.94728         0.000000     -0.002544      0.000000
      7.71471      5.71000      5.82413        -0.003655     -0.005677     -0.007184
      0.00000      7.78738      0.00000         0.000000     -0.009446      0.000000
     12.36704      1.40110      2.47571        -0.004266     -0.002949      0.004163
     -3.43186      9.87263      9.15403         0.000467     -0.000188      0.003532
      2.11020      7.61708      3.14612         0.000349     -0.000998      0.001651
     -0.20367      4.12509      9.15225         0.001771      0.006572      0.004524
     -3.69980      1.40110      9.41885         0.004266     -0.002949     -0.004163
     12.09910      9.87263      2.74053        -0.000467     -0.000188     -0.003532
     -0.00907      7.76017      8.86924        -0.000818      0.002098     -0.001210
      1.99508      3.48425      3.28031        -0.001645     -0.001769      0.000246
      5.72032      1.65032      3.02091         0.004648     -0.001401      0.002210
      3.11651      9.80411      8.97823         0.000509      0.003021      0.000078
      8.67631      7.76017      3.02531         0.000818      0.002098      0.001210
      6.67216      3.48425      8.61425         0.001645     -0.001769     -0.000246
      2.94692      1.65032      8.87364        -0.004648     -0.001401     -0.002210
      5.55073      9.80411      2.91632        -0.000509      0.003021     -0.000078
      6.55704      7.61708      8.74844        -0.000349     -0.000998     -0.001651
      8.87091      4.12509      2.74231        -0.001771      0.006572     -0.004524
      2.44985      0.29778      2.63111         0.001113      0.001328      0.000359
      5.20760      5.70046      3.12503        -0.000260      0.000874      0.001958
     -0.66859      0.01458      9.35197        -0.002058     -0.001022      0.003315
      3.45964      5.70046      8.76952         0.000260      0.000874     -0.001958
      9.33583      0.01458      2.54259         0.002058     -0.001022     -0.003315
     12.04644      5.57673      3.16525        -0.000992     -0.001758     -0.000003
      6.21740      0.29778      9.26345        -0.001113      0.001328     -0.000359
     -3.37920      5.57673      8.72931         0.000992     -0.001758      0.000003
 -----------------------------------------------------------------------------------
    total drift:                                0.000274     -0.001247     -0.000697


--------------------------------------------------------------------------------------------------------



  FREE ENERGIE OF THE ION-ELECTRON SYSTEM (eV)
  ---------------------------------------------------
  free  energy   TOTEN  =      -274.09717136 eV

  energy  without entropy=     -274.09717136  energy(sigma->0) =     -274.09717136
 
 d Force = 0.1791525E-03[ 0.645E-04, 0.294E-03]  d Energy = 0.1822939E-03-0.314E-05
 d Force =-0.3705744E+00[-0.373E+00,-0.369E+00]  d Ewald  =-0.3705752E+00 0.763E-06


--------------------------------------------------------------------------------------------------------


    POTLOK:  cpu time    0.2900: real time    0.2901


--------------------------------------------------------------------------------------------------------




--------------------------------------------------------------------------------------------------------


    WAVPRE:  cpu time    0.0689: real time    0.0711
    FEWALD:  cpu time    0.0016: real time    0.0016
    ORTHCH:  cpu time    0.9080: real time    0.9091
     LOOP+:  cpu time   40.2445: real time   40.3062


--------------------------------------- Iteration     10(   1)  ---------------------------------------


    POTLOK:  cpu time    0.1254: real time    0.1352
    SETDIJ:  cpu time    0.1574: real time    0.1575
     EDDAV:  cpu time    5.8191: real time    5.8255
       DOS:  cpu time    0.0002: real time    0.0002
    CHARGE:  cpu time    0.2235: real time    0.2236
    MIXING:  cpu time    0.0041: real time    0.0041
    --------------------------------------------
      LOOP:  cpu time    6.3298: real time    6.3463

 eigenvalue-minimisations  :   560
 total energy-change (2. order) :-0.1024098E-04  (-0.3355958E-02)
 number of electron     383.9999997 magnetization 
 augmentation part      -49.4172875 magnetization 

 Broyden mixing:
  rms(total) = 0.37820E-02    rms(broyden)= 0.37816E-02
  rms(prec ) = 0.43149E-02
  weight for this iteration     100.00

 Free energy of the ion-electron system (eV)
  ---------------------------------------------------
  alpha Z        PSCENC =       310.04809462
  Ewald energy   TEWEN  =    -15412.33250040
  -Hartree energ DENC   =     -4574.23788616
  -exchange      EXHF   =         0.00000000
  -V(xc)+E(xc)   XCENC  =       447.04663846
  PAW double counting   =     11244.27181444   -10653.56202295
  entropy T*S    EENTRO =        -0.00000000
  eigenvalues    EBANDS =     -1859.59047213
  atomic energy  EATOM  =     20224.25915541
  Solvation  Ediel_sol  =         0.00000000
  ---------------------------------------------------
  free energy    TOTEN  =      -274.09717873 eV

  energy without entropy =     -274.09717873  energy(sigma->0) =     -274.09717873


--------------------------------------------------------------------------------------------------------




--------------------------------------- Iteration     10(   2)  ---------------------------------------


    POTLOK:  cpu time    0.1304: real time    0.1350
    SETDIJ:  cpu time    0.1573: real time    0.1574
     EDDAV:  cpu time    5.8138: real time    5.8218
       DOS:  cpu time    0.0002: real time    0.0002
    CHARGE:  cpu time    0.2238: real time    0.2238
    MIXING:  cpu time    0.0043: real time    0.0043
    --------------------------------------------
      LOOP:  cpu time    6.3298: real time    6.3425

 eigenvalue-minimisations  :   560
 total energy-change (2. order) :-0.1454142E-03  (-0.1608432E-03)
 number of electron     383.9999997 magnetization 
 augmentation part      -49.4174041 magnetization 

 Broyden mixing:
  rms(total) = 0.10958E-02    rms(broyden)= 0.10941E-02
  rms(prec ) = 0.14169E-02
  weight for this iteration     100.00

 eigenvalues of (default mixing * dielectric matrix)
  average eigenvalue GAMMA=   0.9489
  0.9489

 Free energy of the ion-electron system (eV)
  ---------------------------------------------------
  alpha Z        PSCENC =       310.04809462
  Ewald energy   TEWEN  =    -15412.33250040
  -Hartree energ DENC   =     -4574.23577440
  -exchange      EXHF   =         0.00000000
  -V(xc)+E(xc)   XCENC  =       447.04656813
  PAW double counting   =     11244.27857216   -10653.56886412
  entropy T*S    EENTRO =        -0.00000000
  eigenvalues    EBANDS =     -1859.59257554
  atomic energy  EATOM  =     20224.25915541
  Solvation  Ediel_sol  =         0.00000000
  ---------------------------------------------------
  free energy    TOTEN  =      -274.09732414 eV

  energy without entropy =     -274.09732414  energy(sigma->0) =     -274.09732414


--------------------------------------------------------------------------------------------------------




--------------------------------------- Iteration     10(   3)  ---------------------------------------


    POTLOK:  cpu time    0.1306: real time    0.1370
    SETDIJ:  cpu time    0.1571: real time    0.1572
     EDDAV:  cpu time    5.1613: real time    5.1670
       DOS:  cpu time    0.0003: real time    0.0002
    --------------------------------------------
      LOOP:  cpu time    5.4493: real time    5.4614

 eigenvalue-minimisations  :   480
 total energy-change (2. order) : 0.8220741E-07  (-0.2394941E-05)
 number of electron     383.9999997 magnetization 
 augmentation part      -49.4174041 magnetization 

 Free energy of the ion-electron system (eV)
  ---------------------------------------------------
  alpha Z        PSCENC =       310.04809462
  Ewald energy   TEWEN  =    -15412.33250040
  -Hartree energ DENC   =     -4574.23702180
  -exchange      EXHF   =         0.00000000
  -V(xc)+E(xc)   XCENC  =       447.04655722
  PAW double counting   =     11244.28413276   -10653.57449505
  entropy T*S    EENTRO =        -0.00000000
  eigenvalues    EBANDS =     -1859.59124682
  atomic energy  EATOM  =     20224.25915541
  Solvation  Ediel_sol  =         0.00000000
  ---------------------------------------------------
  free energy    TOTEN  =      -274.09732406 eV

  energy without entropy =     -274.09732406  energy(sigma->0) =     -274.09732406


--------------------------------------------------------------------------------------------------------




 average (electrostatic) potential at core
  the test charge radii are     0.9406  1.4837  0.9748
  (the norm of the test charge is              1.0000)
       1 -92.6790       2 -92.6790       3 -94.2237       4 -94.2237       5 -94.0888
       6 -94.7262       7 -94.1116       8 -94.0500       9 -93.5676      10 -93.5676
      11 -93.6648      12 -93.6648      13 -94.1635      14 -94.0205      15 -94.0126
      16 -94.1605      17 -93.9864      18 -93.9864      19 -93.9816      20 -93.9816
      21 -94.7262      22 -94.0888      23 -94.0500      24 -94.1116      25 -93.9992
      26 -93.9992      27 -94.0177      28 -94.0177      29 -94.0205      30 -94.1635
      31 -94.1605      32 -94.0126      33 -93.7024      34 -93.7025      35 -94.0641
      36 -94.1286      37 -92.5391      38 -92.5391      39 -94.0689      40 -94.6549
      41 -93.9777      42 -93.9777      43 -94.1286      44 -94.0641      45 -94.0803
      46 -94.0803      47 -94.6550      48 -94.0689      49 -41.9821      50 -41.5392
      51 -41.8876      52 -41.9104      53 -41.9821      54 -41.8060      55 -41.8876
      56 -42.2132      57 -27.8259      58 -28.1176      59 -28.7410      60 -28.7715
      61 -27.8259      62 -28.1176      63 -28.9001      64 -28.3798      65 -28.6607
      66 -28.6624      67 -28.9001      68 -28.3799      69 -28.6608      70 -28.6624
      71 -28.7411      72 -28.7714      73 -28.5176      74 -28.7529      75 -27.9699
      76 -28.7529      77 -27.9699      78 -28.8398      79 -28.5176      80 -28.8399
 
 
 
 E-fermi :   0.4223     XC(G=0):  -7.8731     alpha+bet : -7.9187


 k-point     1 :       0.0000    0.0000    0.0000
  band No.  band energies     occupation 
      1     -14.6429      2.00000
      2     -14.3799      2.00000
      3     -14.1668      2.00000
      4     -14.1418      2.00000
      5     -14.0813      2.00000
      6     -14.0588      2.00000
      7     -14.0417      2.00000
      8     -13.9201      2.00000
      9     -13.8719      2.00000
     10     -13.8336      2.00000
     11     -13.8064      2.00000
     12     -13.7737      2.00000
     13     -13.7451      2.00000
     14     -13.7311      2.00000
     15     -13.7213      2.00000
     16     -13.6805      2.00000
     17     -13.6759      2.00000
     18     -13.6614      2.00000
     19     -13.6473      2.00000
     20     -13.5997      2.00000
     21     -13.5958      2.00000
     22     -13.5823      2.00000
     23     -13.5794      2.00000
     24     -13.5520      2.00000
     25     -13.5447      2.00000
     26     -13.4992      2.00000
     27     -13.4902      2.00000
     28     -13.4588      2.00000
     29     -13.4537      2.00000
     30     -13.4456      2.00000
     31     -13.4130      2.00000
     32     -13.4080      2.00000
     33     -13.4019      2.00000
     34     -13.3783      2.00000
     35     -13.3583      2.00000
     36     -13.3438      2.00000
     37     -13.3213      2.00000
     38     -13.3018      2.00000
     39     -13.2862      2.00000
     40     -13.2738      2.00000
     41     -13.1723      2.00000
     42     -13.1187      2.00000
     43     -12.9589      2.00000
     44     -12.9297      2.00000
     45     -12.2865      2.00000
     46     -12.2637      2.00000
     47     -12.1450      2.00000
     48     -12.1403      2.00000
     49      -5.5954      2.00000
     50      -5.3085      2.00000
     51      -5.2579      2.00000
     52      -5.1485      2.00000
     53      -5.1215      2.00000
     54      -5.0921      2.00000
     55      -4.9921      2.00000
     56      -4.6692      2.00000
     57      -3.8635      2.00000
     58      -3.6781      2.00000
     59      -3.6766      2.00000
     60      -3.4808      2.00000
     61      -3.4205      2.00000
     62      -3.3909      2.00000
     63      -3.3904      2.00000
     64      -3.3662      2.00000
     65      -3.2694      2.00000
     66      -3.2486      2.00000
     67      -3.2279      2.00000
     68      -3.2278      2.00000
     69      -3.1788      2.00000
     70      -3.0650      2.00000
     71      -3.0413      2.00000
     72      -3.0101      2.00000
     73      -3.0056      2.00000
     74      -2.9712      2.00000
     75      -2.9555      2.00000
     76      -2.8966      2.00000
     77      -2.8230      2.00000
     78      -2.7581      2.00000
     79      -2.7403      2.00000
     80      -2.7341      2.00000
     81      -2.6553      2.00000
     82      -2.6204      2.00000
     83      -2.6141      2.00000
     84      -2.5933      2.00000
     85      -2.5665      2.00000
     86      -2.5527      2.00000
     87      -2.5017      2.00000
     88      -2.4545      2.00000
     89      -2.4127      2.00000
     90      -2.3908      2.00000
     91      -2.3672      2.00000
     92      -2.3506      2.00000
     93      -2.3225      2.00000
     94      -2.3140      2.00000
     95      -2.3058      2.00000
     96      -2.3050      2.00000
     97      -2.2543      2.00000
     98      -2.2209      2.00000
     99      -2.2172      2.00000
    100      -2.1931      2.00000
    101      -2.1633      2.00000
    102      -2.1445      2.00000
    103      -2.1213      2.00000
    104      -2.0643      2.00000
    105      -2.0185      2.00000
    106      -2.0035      2.00000
    107      -1.9701      2.00000
    108      -1.9535      2.00000
    109      -1.9309      2.00000
    110      -1.9115      2.00000
    111      -1.9034      2.00000
    112      -1.8889      2.00000
    113      -1.8560      2.00000
    114      -1.8240      2.00000
    115      -1.8228      2.00000
    116      -1.7927      2.00000
    117      -1.7752      2.00000
    118      -1.7207      2.00000
    119      -1.7022      2.00000
    120      -1.6860      2.00000
    121      -1.6756      2.00000
    122      -1.6745      2.00000
    123      -1.6469      2.00000
    124      -1.6416      2.00000
    125      -1.6108      2.00000
    126      -1.6068      2.00000
    127      -1.5811      2.00000
    128      -1.5574      2.00000
    129      -1.5506      2.00000
    130      -1.5283      2.00000
    131      -1.5192      2.00000
    132      -1.5128      2.00000
    133      -1.4891      2.00000
    134      -1.4637      2.00000
    135      -1.4485      2.00000
    136      -1.4390      2.00000
    137      -1.4313      2.00000
    138      -1.3911      2.00000
    139      -1.3909      2.00000
    140      -1.3803      2.00000
    141      -1.3498      2.00000
    142      -1.3486      2.00000
    143      -1.3320      2.00000
    144      -1.3314      2.00000
    145      -1.3073      2.00000
    146      -1.2981      2.00000
    147      -1.2812      2.00000
    148      -1.2672      2.00000
    149      -1.2530      2.00000
    150      -1.2431      2.00000
    151      -1.2274      2.00000
    152      -1.2104      2.00000
    153      -1.1956      2.00000
    154      -1.1810      2.00000
    155      -1.1781      2.00000
    156      -1.1581      2.00000
    157      -1.1482      2.00000
    158      -1.1186      2.00000
    159      -1.0949      2.00000
    160      -1.0817      2.00000
    161      -1.0814      2.00000
    162      -1.0749      2.00000
    163      -1.0596      2.00000
    164      -1.0547      2.00000
    165      -1.0128      2.00000
    166      -0.9937      2.00000
    167      -0.9805      2.00000
    168      -0.9727      2.00000
    169      -0.9466      2.00000
    170      -0.9315      2.00000
    171      -0.9204      2.00000
    172      -0.9056      2.00000
    173      -0.8811      2.00000
    174      -0.8618      2.00000
    175      -0.8317      2.00000
    176      -0.8015      2.00000
    177      -0.7946      2.00000
    178      -0.7599      2.00000
    179      -0.7546      2.00000
    180      -0.6717      2.00000
    181      -0.6695      2.00000
    182      -0.5992      2.00000
    183      -0.5959      2.00000
    184      -0.5232      2.00000
    185      -0.3617      2.00000
    186      -0.3533      2.00000
    187      -0.3377      2.00000
    188      -0.2730      2.00000
    189      -0.2406      2.00000
    190      -0.2245      2.00000
    191      -0.1605      2.00000
    192      -0.0637      2.00000
    193       2.4823      0.00000
    194       2.8000      0.00000
    195       2.8185      0.00000
    196       2.9396      0.00000
    197       3.1377      0.00000
    198       3.1482      0.00000
    199       3.2241      0.00000
    200       3.4295      0.00000
    201       5.6772      0.00000
    202       5.8138      0.00000
    203       5.9151      0.00000
    204       5.9625      0.00000
    205       6.0654      0.00000
    206       6.0759      0.00000
    207       6.1359      0.00000
    208       6.1863      0.00000
    209       6.2656      0.00000
    210       6.3703      0.00000
    211       6.4906      0.00000
    212       6.5366      0.00000
    213       6.6338      0.00000
    214       6.6412      0.00000
    215       6.6991      0.00000
    216       6.7440      0.00000
    217       6.8259      0.00000
    218       6.8364      0.00000
    219       6.9197      0.00000
    220       6.9724      0.00000
    221       6.9903      0.00000
    222       7.0519      0.00000
    223       7.1802      0.00000
    224       7.2361      0.00000
    225       7.2697      0.00000
    226       7.3655      0.00000
    227       7.4425      0.00000
    228       7.4620      0.00000
    229       7.5417      0.00000
    230       7.5586      0.00000
    231       7.6021      0.00000
    232       7.6974      0.00000
    233       7.7848      0.00000
    234       7.8054      0.00000
    235       7.8217      0.00000
    236       7.8776      0.00000
    237       7.8859      0.00000
    238       7.9058      0.00000
    239       7.9840      0.00000
    240       8.0076      0.00000


--------------------------------------------------------------------------------------------------------


 soft charge-density along one line, spin component           1
         0         1         2         3         4         5         6         7         8         9
 total charge-density along one line
 
 pseudopotential strength for first ion, spin component:           1
 47.403  -0.016  -0.003   0.019   0.003  -0.000   0.000   0.000
 -0.016   0.019  -0.000   0.000   0.000  -0.000   0.000   0.000
 -0.003  -0.000   9.108   0.000  -0.000   0.002  -0.000   0.000
  0.019   0.000   0.000   9.105   0.000  -0.000   0.002  -0.000
  0.003   0.000  -0.000   0.000   9.109   0.000  -0.000   0.002
 -0.000  -0.000   0.002  -0.000   0.000   0.035   0.000  -0.000
  0.000   0.000  -0.000   0.002  -0.000   0.000   0.035   0.000
  0.000   0.000   0.000  -0.000   0.002  -0.000   0.000   0.035
 total augmentation occupancy for first ion, spin component:           1
  1.911   0.427   0.009  -0.060  -0.010   0.012  -0.066  -0.012
  0.427   0.249  -0.054   0.335   0.056   0.013  -0.099  -0.023
  0.009  -0.054   1.759  -0.002   0.003  -0.398  -0.007   0.002
 -0.060   0.335  -0.002   1.797  -0.001  -0.007  -0.330  -0.010
 -0.010   0.056   0.003  -0.001   1.750   0.002  -0.010  -0.422
  0.012   0.013  -0.398  -0.007   0.002   0.101   0.003  -0.000
 -0.066  -0.099  -0.007  -0.330  -0.010   0.003   0.078   0.006
 -0.012  -0.023   0.002  -0.010  -0.422  -0.000   0.006   0.114


------------------------ aborting loop because EDIFF is reached ----------------------------------------


 


 total charge     
 
# of ion       s       p       d       tot
------------------------------------------
    1        1.589   3.591   0.000   5.180
    2        1.589   3.591   0.000   5.180
    3        1.599   3.535   0.000   5.134
    4        1.599   3.535   0.000   5.134
    5        1.598   3.544   0.000   5.141
    6        1.602   3.527   0.000   5.130
    7        1.598   3.539   0.000   5.137
    8        1.599   3.537   0.000   5.135
    9        1.597   3.539   0.000   5.136
   10        1.597   3.539   0.000   5.136
   11        1.594   3.555   0.000   5.149
   12        1.594   3.555   0.000   5.149
   13        1.597   3.549   0.000   5.145
   14        1.598   3.545   0.000   5.143
   15        1.599   3.543   0.000   5.142
   16        1.596   3.550   0.000   5.146
   17        1.597   3.544   0.000   5.140
   18        1.597   3.544   0.000   5.140
   19        1.595   3.548   0.000   5.144
   20        1.595   3.548   0.000   5.144
   21        1.602   3.527   0.000   5.130
   22        1.598   3.544   0.000   5.141
   23        1.599   3.537   0.000   5.135
   24        1.598   3.539   0.000   5.137
   25        1.596   3.561   0.000   5.156
   26        1.596   3.561   0.000   5.156
   27        1.596   3.546   0.000   5.142
   28        1.596   3.546   0.000   5.142
   29        1.598   3.545   0.000   5.143
   30        1.597   3.549   0.000   5.145
   31        1.596   3.550   0.000   5.146
   32        1.599   3.543   0.000   5.142
   33        1.599   3.539   0.000   5.139
   34        1.599   3.539   0.000   5.139
   35        1.596   3.552   0.000   5.148
   36        1.595   3.562   0.000   5.157
   37        1.590   3.591   0.000   5.181
   38        1.590   3.591   0.000   5.181
   39        1.599   3.537   0.000   5.136
   40        1.604   3.522   0.000   5.126
   41        1.600   3.540   0.000   5.140
   42        1.600   3.540   0.000   5.140
   43        1.595   3.562   0.000   5.157
   44        1.596   3.552   0.000   5.148
   45        1.596   3.557   0.000   5.153
   46        1.596   3.557   0.000   5.153
   47        1.604   3.522   0.000   5.126
   48        1.599   3.537   0.000   5.136
   49        0.975   1.144   0.373   2.492
   50        0.966   1.106   0.359   2.431
   51        0.971   1.149   0.383   2.502
   52        0.962   1.117   0.370   2.448
   53        0.975   1.144   0.373   2.492
   54        0.970   1.135   0.375   2.479
   55        0.971   1.149   0.383   2.502
   56        0.974   1.143   0.371   2.487
   57        0.071   0.129   0.000   0.200
   58        0.071   0.133   0.000   0.204
   59        0.056   0.102   0.000   0.158
   60        0.058   0.104   0.000   0.162
   61        0.071   0.129   0.000   0.200
   62        0.071   0.133   0.000   0.204
   63        0.056   0.101   0.000   0.157
   64        0.064   0.115   0.000   0.179
   65        0.061   0.110   0.000   0.171
   66        0.061   0.112   0.000   0.173
   67        0.056   0.101   0.000   0.157
   68        0.064   0.115   0.000   0.179
   69        0.061   0.110   0.000   0.171
   70        0.061   0.112   0.000   0.173
   71        0.056   0.102   0.000   0.158
   72        0.058   0.104   0.000   0.162
   73        0.062   0.110   0.000   0.172
   74        0.060   0.107   0.000   0.167
   75        0.068   0.126   0.000   0.195
   76        0.060   0.107   0.000   0.167
   77        0.068   0.126   0.000   0.195
   78        0.060   0.108   0.000   0.168
   79        0.062   0.110   0.000   0.172
   80        0.060   0.108   0.000   0.168
--------------------------------------------------
tot         85.915 182.103   2.985 271.003
 
    CHARGE:  cpu time    0.2217: real time    0.2218
    FORLOC:  cpu time    0.0573: real time    0.0573
    FORNL :  cpu time    1.4165: real time    1.4170
    STRESS:  cpu time    7.0458: real time    7.0496
    FORCOR:  cpu time    0.1677: real time    0.1677
    FORHAR:  cpu time    0.0813: real time    0.0813
    MIXING:  cpu time    0.0038: real time    0.0038
    OFIELD:  cpu time    0.0000: real time    0.0000

  FORCE on cell =-STRESS in cart. coord.  units (eV):
  Direction    XX          YY          ZZ          XY          YZ          ZX
  --------------------------------------------------------------------------------------
  Alpha Z   310.04809   310.04809   310.04809
  Ewald   -5106.34883 -5451.24132 -4854.83204    -0.00000    -0.00000    23.62016
  Hartree  1544.61146  1336.91757  1692.71459    -0.00000     0.00000     8.45882
  E(xc)   -1403.66156 -1403.57212 -1405.04382     0.00000     0.00000     0.16442
  Local   -4338.66357 -3801.21896 -4720.64489    -0.00000     0.00000   -33.55988
  n-local  4203.99142  4200.70536  4209.60269    -0.00000     0.00000     0.19344
  augment  -980.06563  -981.09686  -979.49179    -0.00000    -0.00000    -0.08945
  Kinetic  5770.96146  5792.50082  5748.24492     0.00001     0.00000     1.34684
  Fock        0.00000     0.00000     0.00000     0.00000     0.00000     0.00000
  -------------------------------------------------------------------------------------
  Total       0.87285     3.04259     0.59776     0.00000     0.00000     0.13436
  in kB       0.75141     2.61928     0.51460     0.00000     0.00000     0.11566
  external pressure =        1.30 kB  Pullay stress =        0.00 kB


 VOLUME and BASIS-vectors are now :
 -----------------------------------------------------------------------------
  energy-cutoff  :      520.00
  volume of cell :     1861.11
      direct lattice vectors                 reciprocal lattice vectors
    13.459017910  0.000000000 -0.273085008     0.074898101  0.000000000  0.029495859
     0.000000000 11.456071877  0.000000000     0.000000000  0.087289955  0.000000000
    -4.791777054  0.000000000 12.167640179     0.001680979  0.000000000  0.082847197

  length of vectors
    13.461788088 11.456071877 13.077178399     0.080496777  0.087289955  0.082864248


 FORCES acting on ions
    electron-ion (+dipol)            ewald-force                    non-local-force                 convergence-correction
 -----------------------------------------------------------------------------------------------
   0.141E+02 0.731E+01 0.546E+02   -.143E+02 -.710E+01 -.560E+02   0.162E+00 -.214E+00 0.144E+01   0.668E-03 0.451E-02 -.891E-02
   -.141E+02 0.731E+01 -.546E+02   0.143E+02 -.710E+01 0.560E+02   -.162E+00 -.214E+00 -.144E+01   -.668E-03 0.451E-02 0.891E-02
   0.217E+02 -.724E+02 0.126E+01   -.227E+02 0.745E+02 -.289E+01   0.107E+01 -.213E+01 0.163E+01   -.200E-02 -.245E-02 0.253E-02
   -.217E+02 -.724E+02 -.126E+01   0.227E+02 0.745E+02 0.289E+01   -.107E+01 -.213E+01 -.163E+01   0.200E-02 -.245E-02 -.253E-02
   -.404E+02 -.418E+02 0.375E+01   0.412E+02 0.436E+02 -.293E+01   -.814E+00 -.184E+01 -.818E+00   0.141E-02 -.457E-03 -.345E-02
   -.326E+02 -.388E+02 0.273E+02   0.336E+02 0.397E+02 -.287E+02   -.998E+00 -.917E+00 0.146E+01   -.235E-02 -.303E-03 -.325E-02
   0.224E+02 0.762E+02 -.460E+01   -.235E+02 -.783E+02 0.377E+01   0.113E+01 0.210E+01 0.838E+00   -.354E-02 -.380E-02 -.226E-02
   -.252E+02 0.516E+02 0.161E+02   0.261E+02 -.539E+02 -.148E+02   -.846E+00 0.231E+01 -.124E+01   0.537E-02 0.556E-02 -.582E-02
   -.182E+02 -.449E+02 -.260E+01   0.189E+02 0.467E+02 0.348E+01   -.719E+00 -.177E+01 -.880E+00   0.130E-01 0.769E-02 0.115E-02
   0.182E+02 -.449E+02 0.260E+01   -.189E+02 0.467E+02 -.348E+01   0.719E+00 -.177E+01 0.880E+00   -.130E-01 0.769E-02 -.115E-02
   0.216E+02 0.266E+02 -.682E+01   -.221E+02 -.277E+02 0.659E+01   0.494E+00 0.108E+01 0.221E+00   0.140E-02 0.628E-02 0.261E-02
   -.216E+02 0.266E+02 0.682E+01   0.221E+02 -.277E+02 -.659E+01   -.494E+00 0.108E+01 -.221E+00   -.140E-02 0.628E-02 -.261E-02
   -.265E+02 -.403E+02 0.405E+01   0.277E+02 0.419E+02 -.360E+01   -.118E+01 -.158E+01 -.456E+00   0.211E-03 0.259E-02 0.564E-02
   0.196E+02 -.430E+02 -.148E+02   -.205E+02 0.450E+02 0.140E+02   0.987E+00 -.197E+01 0.790E+00   0.199E-02 0.647E-04 -.123E-02
   0.239E+02 0.589E+02 0.106E+01   -.250E+02 -.612E+02 -.166E+01   0.107E+01 0.228E+01 0.607E+00   -.125E-02 0.233E-02 -.699E-02
   -.156E+02 0.472E+02 -.236E+01   0.164E+02 -.487E+02 0.320E+01   -.773E+00 0.151E+01 -.836E+00   -.100E-02 -.426E-02 -.369E-02
   -.248E+02 -.491E+02 0.733E+01   0.258E+02 0.506E+02 -.645E+01   -.981E+00 -.155E+01 -.878E+00   -.140E-03 0.353E-02 0.247E-02
   0.248E+02 -.491E+02 -.733E+01   -.258E+02 0.506E+02 0.645E+01   0.981E+00 -.155E+01 0.878E+00   0.140E-03 0.353E-02 -.247E-02
   0.188E+02 0.362E+02 -.697E+01   -.195E+02 -.377E+02 0.634E+01   0.784E+00 0.145E+01 0.627E+00   -.162E-02 -.175E-02 -.168E-02
   -.188E+02 0.362E+02 0.697E+01   0.195E+02 -.377E+02 -.634E+01   -.784E+00 0.145E+01 -.627E+00   0.162E-02 -.175E-02 0.168E-02
   0.326E+02 -.388E+02 -.273E+02   -.336E+02 0.397E+02 0.287E+02   0.998E+00 -.917E+00 -.146E+01   0.235E-02 -.303E-03 0.325E-02
   0.404E+02 -.418E+02 -.375E+01   -.412E+02 0.436E+02 0.293E+01   0.814E+00 -.184E+01 0.818E+00   -.141E-02 -.457E-03 0.345E-02
   0.252E+02 0.516E+02 -.161E+02   -.261E+02 -.539E+02 0.148E+02   0.846E+00 0.231E+01 0.124E+01   -.537E-02 0.556E-02 0.582E-02
   -.224E+02 0.762E+02 0.460E+01   0.235E+02 -.783E+02 -.377E+01   -.113E+01 0.210E+01 -.838E+00   0.354E-02 -.380E-02 0.226E-02
   -.253E+02 -.371E+02 0.535E+01   0.256E+02 0.386E+02 -.484E+01   -.292E+00 -.146E+01 -.515E+00   0.553E-02 -.395E-02 0.118E-02
   0.253E+02 -.371E+02 -.535E+01   -.256E+02 0.386E+02 0.484E+01   0.292E+00 -.146E+01 0.515E+00   -.553E-02 -.395E-02 -.118E-02
   0.247E+02 0.292E+02 -.742E+01   -.255E+02 -.304E+02 0.647E+01   0.847E+00 0.118E+01 0.944E+00   0.110E-02 -.808E-02 -.804E-03
   -.247E+02 0.292E+02 0.742E+01   0.255E+02 -.304E+02 -.647E+01   -.847E+00 0.118E+01 -.944E+00   -.110E-02 -.808E-02 0.804E-03
   -.196E+02 -.430E+02 0.148E+02   0.205E+02 0.450E+02 -.140E+02   -.987E+00 -.197E+01 -.790E+00   -.199E-02 0.647E-04 0.123E-02
   0.265E+02 -.403E+02 -.405E+01   -.277E+02 0.419E+02 0.360E+01   0.118E+01 -.158E+01 0.456E+00   -.211E-03 0.259E-02 -.564E-02
   0.156E+02 0.472E+02 0.236E+01   -.164E+02 -.487E+02 -.320E+01   0.773E+00 0.151E+01 0.836E+00   0.100E-02 -.426E-02 0.369E-02
   -.239E+02 0.589E+02 -.106E+01   0.250E+02 -.612E+02 0.166E+01   -.107E+01 0.228E+01 -.607E+00   0.125E-02 0.233E-02 0.699E-02
   -.532E+02 -.121E+02 0.868E+00   0.558E+02 0.121E+02 -.132E+01   -.262E+01 -.317E-01 0.457E+00   -.145E-02 0.109E-01 -.661E-02
   0.532E+02 -.121E+02 -.869E+00   -.558E+02 0.121E+02 0.132E+01   0.262E+01 -.317E-01 -.457E+00   0.145E-02 0.109E-01 0.661E-02
   -.443E+02 0.754E+01 -.183E+02   0.459E+02 -.778E+01 0.175E+02   -.152E+01 0.234E+00 0.724E+00   -.509E-02 0.413E-02 -.459E-02
   0.384E+02 0.714E+01 0.130E+02   -.399E+02 -.684E+01 -.127E+02   0.144E+01 -.291E+00 -.330E+00   0.355E-02 -.560E-02 0.827E-03
   0.876E+01 -.303E+02 -.570E+02   -.878E+01 0.304E+02 0.586E+02   0.199E-01 -.199E-01 -.157E+01   -.278E-03 0.517E-02 -.296E-02
   -.876E+01 -.303E+02 0.570E+02   0.878E+01 0.304E+02 -.586E+02   -.199E-01 -.199E-01 0.157E+01   0.278E-03 0.517E-02 0.296E-02
   -.561E+02 0.526E+01 -.172E+02   0.587E+02 -.490E+01 0.165E+02   -.264E+01 -.356E+00 0.755E+00   -.130E-03 -.912E-02 -.462E-02
   0.159E+02 0.633E+02 -.211E+02   -.166E+02 -.649E+02 0.225E+02   0.779E+00 0.159E+01 -.138E+01   0.820E-02 -.909E-03 0.342E-02
   -.545E+02 -.478E+01 -.142E+02   0.572E+02 0.464E+01 0.139E+02   -.273E+01 0.145E+00 0.295E+00   -.265E-02 0.361E-04 -.286E-02
   0.545E+02 -.478E+01 0.142E+02   -.572E+02 0.464E+01 -.139E+02   0.273E+01 0.145E+00 -.295E+00   0.265E-02 0.361E-04 0.286E-02
   -.384E+02 0.714E+01 -.130E+02   0.399E+02 -.684E+01 0.127E+02   -.144E+01 -.291E+00 0.330E+00   -.355E-02 -.560E-02 -.827E-03
   0.443E+02 0.754E+01 0.183E+02   -.459E+02 -.778E+01 -.175E+02   0.152E+01 0.234E+00 -.724E+00   0.509E-02 0.413E-02 0.459E-02
   -.539E+02 -.838E+01 -.243E+02   0.557E+02 0.835E+01 0.239E+02   -.178E+01 0.326E-01 0.408E+00   -.283E-02 -.301E-02 -.144E-02
   0.539E+02 -.838E+01 0.243E+02   -.557E+02 0.835E+01 -.239E+02   0.178E+01 0.326E-01 -.408E+00   0.283E-02 -.301E-02 0.144E-02
   -.159E+02 0.633E+02 0.211E+02   0.166E+02 -.649E+02 -.225E+02   -.779E+00 0.159E+01 0.138E+01   -.820E-02 -.909E-03 -.342E-02
   0.561E+02 0.526E+01 0.172E+02   -.587E+02 -.490E+01 -.165E+02   0.264E+01 -.356E+00 -.755E+00   0.130E-03 -.912E-02 0.462E-02
   -.767E+01 0.950E+01 0.136E+01   0.929E+01 -.105E+02 -.126E+01   -.162E+01 0.968E+00 -.109E+00   -.422E-03 -.283E-03 -.727E-05
   -.490E-06 -.214E+01 -.937E-06   -.358E-05 0.330E+01 -.690E-05   0.000E+00 -.117E+01 0.000E+00   -.132E-08 0.514E-04 0.763E-09
   -.299E+01 0.326E+01 -.369E+01   0.265E+01 -.341E+01 0.275E+01   0.345E+00 0.148E+00 0.942E+00   -.253E-03 -.615E-03 0.319E-03
   0.640E-06 -.270E+01 0.980E-06   0.469E-05 0.308E+01 0.720E-05   0.000E+00 -.380E+00 0.000E+00   0.390E-09 0.428E-03 -.122E-08
   0.767E+01 0.950E+01 -.136E+01   -.929E+01 -.105E+02 0.126E+01   0.162E+01 0.968E+00 0.109E+00   0.422E-03 -.283E-03 0.727E-05
   -.494E-06 0.281E+01 -.894E-06   -.362E-05 -.261E+01 -.656E-05   0.000E+00 -.198E+00 0.000E+00   -.614E-09 -.499E-03 0.143E-08
   0.299E+01 0.326E+01 0.369E+01   -.265E+01 -.341E+01 -.275E+01   -.345E+00 0.148E+00 -.942E+00   0.253E-03 -.615E-03 -.319E-03
   0.235E-07 -.126E+02 0.146E-05   0.138E-06 0.139E+02 0.108E-04   0.000E+00 -.135E+01 0.000E+00   0.606E-09 0.844E-04 -.906E-09
   0.526E+00 -.873E+01 0.273E+01   -.144E+00 0.783E+01 -.340E+01   -.385E+00 0.897E+00 0.679E+00   -.121E-03 0.291E-03 -.171E-03
   0.320E+01 0.469E+01 -.380E+00   -.272E+01 -.350E+01 0.585E+00   -.478E+00 -.118E+01 -.202E+00   0.814E-04 0.320E-04 0.118E-03
   -.311E+01 -.408E+01 -.468E+01   0.297E+01 0.398E+01 0.461E+01   0.136E+00 0.951E-01 0.781E-01   0.576E-04 -.103E-03 -.762E-04
   -.830E+00 0.104E+02 -.123E+01   0.780E+00 -.971E+01 0.124E+01   0.519E-01 -.682E+00 -.432E-02   -.922E-04 -.211E-03 -.246E-04
   -.526E+00 -.873E+01 -.273E+01   0.144E+00 0.783E+01 0.340E+01   0.385E+00 0.897E+00 -.679E+00   0.121E-03 0.291E-03 0.171E-03
   -.320E+01 0.469E+01 0.380E+00   0.272E+01 -.350E+01 -.585E+00   0.478E+00 -.118E+01 0.202E+00   -.814E-04 0.320E-04 -.118E-03
   0.178E+01 -.547E+01 -.347E+01   -.145E+01 0.510E+01 0.304E+01   -.339E+00 0.363E+00 0.436E+00   0.150E-03 -.160E-03 0.926E-04
   -.627E+00 -.903E-02 -.343E-01   0.970E-01 -.792E+00 -.268E+00   0.529E+00 0.799E+00 0.303E+00   -.343E-03 0.120E-03 -.164E-03
   -.131E+01 -.808E+01 0.828E+00   0.136E+01 0.742E+01 -.747E+00   -.553E-01 0.660E+00 -.788E-01   0.323E-03 0.463E-04 -.732E-04
   0.390E+00 0.812E+01 -.661E+00   -.415E+00 -.734E+01 0.647E+00   0.251E-01 -.779E+00 0.139E-01   0.219E-04 -.141E-03 -.217E-04
   -.178E+01 -.547E+01 0.347E+01   0.145E+01 0.510E+01 -.304E+01   0.339E+00 0.363E+00 -.436E+00   -.150E-03 -.160E-03 -.926E-04
   0.627E+00 -.903E-02 0.343E-01   -.970E-01 -.792E+00 0.268E+00   -.529E+00 0.799E+00 -.303E+00   0.343E-03 0.120E-03 0.164E-03
   0.131E+01 -.808E+01 -.828E+00   -.136E+01 0.742E+01 0.747E+00   0.553E-01 0.660E+00 0.788E-01   -.323E-03 0.463E-04 0.732E-04
   -.390E+00 0.812E+01 0.661E+00   0.415E+00 -.734E+01 -.647E+00   -.251E-01 -.779E+00 -.139E-01   -.219E-04 -.141E-03 0.217E-04
   0.311E+01 -.408E+01 0.468E+01   -.297E+01 0.398E+01 -.461E+01   -.136E+00 0.951E-01 -.781E-01   -.576E-04 -.103E-03 0.762E-04
   0.830E+00 0.104E+02 0.123E+01   -.780E+00 -.971E+01 -.124E+01   -.519E-01 -.682E+00 0.432E-02   0.922E-04 -.211E-03 0.246E-04
   0.465E+01 0.445E+01 0.438E+01   -.497E+01 -.336E+01 -.452E+01   0.313E+00 -.108E+01 0.141E+00   -.306E-04 0.293E-04 -.793E-04
   -.272E+01 0.628E+00 -.468E+00   0.264E+01 -.677E+00 0.360E+00   0.842E-01 0.499E-01 0.110E+00   0.169E-03 0.956E-04 -.180E-03
   -.544E+01 -.171E+01 -.425E+00   0.443E+01 0.176E+01 0.784E+00   0.101E+01 -.555E-01 -.356E+00   0.381E-04 0.304E-03 -.655E-04
   0.272E+01 0.628E+00 0.468E+00   -.264E+01 -.677E+00 -.360E+00   -.842E-01 0.499E-01 -.110E+00   -.169E-03 0.956E-04 0.180E-03
   0.544E+01 -.171E+01 0.425E+00   -.443E+01 0.176E+01 -.784E+00   -.101E+01 -.555E-01 0.356E+00   -.381E-04 0.304E-03 0.655E-04
   0.935E+00 0.192E+01 0.342E+00   -.803E+00 -.223E+01 -.535E-02   -.133E+00 0.316E+00 -.336E+00   -.103E-04 -.282E-03 -.222E-03
   -.465E+01 0.445E+01 -.438E+01   0.497E+01 -.336E+01 0.452E+01   -.313E+00 -.108E+01 -.141E+00   0.306E-04 0.293E-04 0.793E-04
   -.935E+00 0.192E+01 -.342E+00   0.803E+00 -.223E+01 0.535E-02   0.133E+00 0.316E+00 0.336E+00   0.103E-04 -.282E-03 0.222E-03
 -----------------------------------------------------------------------------------------------
   0.274E-03 0.247E+01 -.697E-03   -.773E-13 -.224E-12 -.589E-13   0.122E-14 -.249E+01 0.111E-15   -.560E-08 0.164E-01 0.219E-08
 
 
 POSITION                                       TOTAL-FORCE (eV/Angst)
 -----------------------------------------------------------------------------------
      1.01338      1.91831      1.90321         0.000769     -0.000365      0.005993
      7.65387      1.91831      9.99134        -0.000769     -0.000365     -0.005993
      7.77215      9.34184     10.18489        -0.002404      0.000060      0.003601
      0.89509      9.34184      1.70967         0.002404      0.000060     -0.003601
      4.19762      7.46016      1.64502        -0.001783     -0.000107     -0.000734
     -2.65667      7.54727     10.69679         0.001674     -0.000305      0.004174
     -2.33571      4.07526     10.44914         0.000462      0.000179      0.004886
      4.22866      3.97419      1.60176         0.003811     -0.007204      0.004405
     -1.48796      1.72409      7.74352        -0.002403     -0.001669      0.000231
     10.15520      1.72409      4.15104         0.002403     -0.001669     -0.000231
     10.07871      9.61660      4.15952        -0.000009     -0.002123     -0.000865
     -1.41147      9.61660      7.73503         0.000009     -0.002123      0.000865
      2.05086      7.46544      7.58801         0.001585      0.002509      0.000079
     -0.04093      7.40083      4.47188        -0.001946      0.005154     -0.001098
     -0.08926      3.92781      4.63398         0.000009     -0.003890      0.003035
      1.88040      4.01665      7.76759         0.001713     -0.000521     -0.000368
      7.67936      1.75968      1.49664         0.001627      0.000860     -0.001210
      0.98788      1.75968     10.39791        -0.001627      0.000860      0.001210
      1.04719      9.71633     10.39178        -0.002465     -0.003068     -0.000925
      7.62006      9.71633      1.50278         0.002465     -0.003068      0.000925
     11.32391      7.54727      1.19777        -0.001674     -0.000305     -0.004174
      4.46962      7.46016     10.24953         0.001783     -0.000107      0.000734
      4.43858      3.97419     10.29279        -0.003811     -0.007204     -0.004405
     11.00295      4.07526      1.44542        -0.000462      0.000179     -0.004886
      5.08231      1.80918      7.57673         0.002335      0.005978      0.003196
      3.58493      1.80918      4.31783        -0.002335      0.005978     -0.003196
      3.37839      9.75793      4.19796        -0.002939     -0.001787     -0.000028
      5.28885      9.75793      7.69659         0.002939     -0.001787      0.000028
      8.70817      7.40083      7.42268         0.001946      0.005154      0.001098
      6.61638      7.46544      4.30655        -0.001585      0.002509     -0.000079
      6.78685      4.01665      4.12697        -0.001713     -0.000521      0.000368
      8.75650      3.92781      7.26057        -0.000009     -0.003890     -0.003035
     -0.33382     11.32851      4.64847        -0.001062     -0.005123     -0.000075
      9.00107     11.32851      7.24609         0.001062     -0.005123      0.000075
      2.98594      5.62459      4.51007        -0.000142     -0.000465      0.002572
     -1.12479      5.88683      7.61536        -0.000627      0.001569      0.002014
     -2.53730     11.33005     10.68876        -0.002119     -0.002224     -0.003560
     11.20454     11.33005      1.20579         0.002119     -0.002224      0.003560
      0.60196      5.97789     10.66254        -0.000992      0.001518      0.001249
      1.12045      5.82297      1.32535        -0.000625      0.003967     -0.001621
      6.45350     11.37257      4.59101        -0.001735     -0.000136     -0.001689
      2.21374     11.37257      7.30354         0.001735     -0.000136      0.001689
      9.79203      5.88683      4.27919         0.000627      0.001569     -0.002014
      5.68130      5.62459      7.38449         0.000142     -0.000465     -0.002572
      4.01476      0.03825     10.53416        -0.000940      0.001584     -0.001234
      4.65248      0.03825      1.36039         0.000940      0.001584      0.001234
      7.54679      5.82297     10.56920         0.000625      0.003967      0.001621
      8.06528      5.97789      1.23202         0.000992      0.001518     -0.001249
      3.41388      5.68653     -0.00885        -0.007246      0.008255     -0.010184
     -2.39589      0.00824      6.08382         0.000000     -0.003019      0.000000
      0.95257      5.70979      6.07075         0.003099     -0.004782      0.004478
      6.72951      0.03986     -0.13654         0.000000      0.007031      0.000000
      5.25336      5.68653     11.90341         0.007246      0.008255      0.010184
      4.33362     11.40000      5.94728         0.000000     -0.001743      0.000000
      7.71467      5.70979      5.82381        -0.003099     -0.004782     -0.004478
      0.00000      7.78714      0.00000         0.000000     -0.005380      0.000000
     12.36638      1.40079      2.47646        -0.003268     -0.003078      0.003967
     -3.43197      9.87225      9.15437         0.000057      0.000160      0.003263
      2.11029      7.61710      3.14649         0.000166     -0.001016      0.001482
     -0.20328      4.12604      9.15292         0.001876      0.006657      0.004439
     -3.69914      1.40079      9.41810         0.003268     -0.003078     -0.003967
     12.09921      9.87225      2.74018        -0.000057      0.000160     -0.003263
     -0.00904      7.76063      8.86886        -0.000924      0.001995     -0.001168
      1.99517      3.48426      3.28071        -0.001439     -0.002221     -0.000320
      5.72084      1.65045      3.02124         0.004278     -0.001444      0.001915
      3.11657      9.80430      8.97838         0.000633      0.003479      0.000211
      8.67628      7.76063      3.02569         0.000924      0.001995      0.001168
      6.67207      3.48426      8.61384         0.001439     -0.002221      0.000320
      2.94641      1.65045      8.87331        -0.004278     -0.001444     -0.001915
      5.55067      9.80430      2.91618        -0.000633      0.003479     -0.000211
      6.55695      7.61710      8.74807        -0.000166     -0.001016     -0.001482
      8.87052      4.12604      2.74163        -0.001876      0.006657     -0.004439
      2.45024      0.29786      2.63126         0.000799      0.001472      0.000272
      5.20744      5.70054      3.12504        -0.000856      0.000447      0.001561
     -0.66893      0.01435      9.35230        -0.001507     -0.000905      0.003172
      3.45980      5.70054      8.76952         0.000856      0.000447     -0.001561
      9.33617      0.01435      2.54225         0.001507     -0.000905     -0.003172
     12.04643      5.57654      3.16539        -0.000667     -0.001855      0.000540
      6.21700      0.29786      9.26330        -0.000799      0.001472     -0.000272
     -3.37919      5.57654      8.72916         0.000667     -0.001855     -0.000540
 -----------------------------------------------------------------------------------
    total drift:                                0.000274     -0.000717     -0.000697


--------------------------------------------------------------------------------------------------------



  FREE ENERGIE OF THE ION-ELECTRON SYSTEM (eV)
  ---------------------------------------------------
  free  energy   TOTEN  =      -274.09732406 eV

  energy  without entropy=     -274.09732406  energy(sigma->0) =     -274.09732406
 
 d Force = 0.1462572E-03[ 0.117E-03, 0.176E-03]  d Energy = 0.1526969E-03-0.644E-05
 d Force =-0.1089782E+00[-0.109E+00,-0.109E+00]  d Ewald  =-0.1089798E+00 0.158E-05


--------------------------------------------------------------------------------------------------------


    POTLOK:  cpu time    0.2892: real time    0.2898


--------------------------------------------------------------------------------------------------------


 Conjugate gradient step on ions:
 trial-energy change:   -0.000153  1 .order   -0.000146   -0.000176   -0.000117
  (g-gl).g = 0.160E-03      g.g   = 0.158E-03  gl.gl    = 0.117E-03
 g(Force)  = 0.158E-03   g(Stress)= 0.000E+00 ortho     = 0.183E-04
 gamma     =   1.36536
 trial     =   0.96021
 opt step  =   2.85245  (harmonic =   2.85245) maximal distance =0.00283716
 next E    =  -274.097433   (d E  =  -0.00026)


--------------------------------------------------------------------------------------------------------


    WAVPRE:  cpu time    0.0683: real time    0.0710
    FEWALD:  cpu time    0.0016: real time    0.0016
    ORTHCH:  cpu time    0.9001: real time    0.9010
     LOOP+:  cpu time   28.5444: real time   28.5993


--------------------------------------- Iteration     11(   1)  ---------------------------------------


    POTLOK:  cpu time    0.1301: real time    0.1335
    SETDIJ:  cpu time    0.1568: real time    0.1569
     EDDAV:  cpu time    5.1439: real time    5.1489
       DOS:  cpu time    0.0002: real time    0.0002
    CHARGE:  cpu time    0.2231: real time    0.2232
    MIXING:  cpu time    0.0046: real time    0.0046
    --------------------------------------------
      LOOP:  cpu time    5.6588: real time    5.6672

 eigenvalue-minimisations  :   480
 total energy-change (2. order) : 0.3476896E-03  (-0.1281276E-01)
 number of electron     383.9999999 magnetization 
 augmentation part      -49.4172722 magnetization 

 Broyden mixing:
  rms(total) = 0.68891E-02    rms(broyden)= 0.68883E-02
  rms(prec ) = 0.78471E-02
  weight for this iteration     100.00

 Free energy of the ion-electron system (eV)
  ---------------------------------------------------
  alpha Z        PSCENC =       310.04809462
  Ewald energy   TEWEN  =    -15412.11526516
  -Hartree energ DENC   =     -4574.44316786
  -exchange      EXHF   =         0.00000000
  -V(xc)+E(xc)   XCENC  =       447.04769378
  PAW double counting   =     11244.29863036   -10653.58917107
  entropy T*S    EENTRO =        -0.00000000
  eigenvalues    EBANDS =     -1859.60294653
  atomic energy  EATOM  =     20224.25915541
  Solvation  Ediel_sol  =         0.00000000
  ---------------------------------------------------
  free energy    TOTEN  =      -274.09697645 eV

  energy without entropy =     -274.09697645  energy(sigma->0) =     -274.09697645


--------------------------------------------------------------------------------------------------------




--------------------------------------- Iteration     11(   2)  ---------------------------------------


    POTLOK:  cpu time    0.1304: real time    0.1351
    SETDIJ:  cpu time    0.1570: real time    0.1570
     EDDAV:  cpu time    5.8129: real time    5.8193
       DOS:  cpu time    0.0002: real time    0.0002
    CHARGE:  cpu time    0.2230: real time    0.2231
    MIXING:  cpu time    0.0045: real time    0.0045
    --------------------------------------------
      LOOP:  cpu time    6.3279: real time    6.3393

 eigenvalue-minimisations  :   560
 total energy-change (2. order) :-0.5426216E-03  (-0.5925865E-03)
 number of electron     383.9999999 magnetization 
 augmentation part      -49.4175228 magnetization 

 Broyden mixing:
  rms(total) = 0.21036E-02    rms(broyden)= 0.21003E-02
  rms(prec ) = 0.27538E-02
  weight for this iteration     100.00

 eigenvalues of (default mixing * dielectric matrix)
  average eigenvalue GAMMA=   0.9138
  0.9138

 Free energy of the ion-electron system (eV)
  ---------------------------------------------------
  alpha Z        PSCENC =       310.04809462
  Ewald energy   TEWEN  =    -15412.11526516
  -Hartree energ DENC   =     -4574.43932307
  -exchange      EXHF   =         0.00000000
  -V(xc)+E(xc)   XCENC  =       447.04757107
  PAW double counting   =     11244.30422887   -10653.59483701
  entropy T*S    EENTRO =        -0.00000000
  eigenvalues    EBANDS =     -1859.60714381
  atomic energy  EATOM  =     20224.25915541
  Solvation  Ediel_sol  =         0.00000000
  ---------------------------------------------------
  free energy    TOTEN  =      -274.09751907 eV

  energy without entropy =     -274.09751907  energy(sigma->0) =     -274.09751907


--------------------------------------------------------------------------------------------------------




--------------------------------------- Iteration     11(   3)  ---------------------------------------


    POTLOK:  cpu time    0.1307: real time    0.1353
    SETDIJ:  cpu time    0.1565: real time    0.1585
     EDDAV:  cpu time    6.1500: real time    6.1538
       DOS:  cpu time    0.0002: real time    0.0002
    --------------------------------------------
      LOOP:  cpu time    6.4375: real time    6.4478

 eigenvalue-minimisations  :   600
 total energy-change (2. order) : 0.1460256E-05  (-0.9214142E-05)
 number of electron     383.9999999 magnetization 
 augmentation part      -49.4175228 magnetization 

 Free energy of the ion-electron system (eV)
  ---------------------------------------------------
  alpha Z        PSCENC =       310.04809462
  Ewald energy   TEWEN  =    -15412.11526516
  -Hartree energ DENC   =     -4574.44261090
  -exchange      EXHF   =         0.00000000
  -V(xc)+E(xc)   XCENC  =       447.04761906
  PAW double counting   =     11244.31038691   -10653.60106036
  entropy T*S    EENTRO =        -0.00000000
  eigenvalues    EBANDS =     -1859.60383718
  atomic energy  EATOM  =     20224.25915541
  Solvation  Ediel_sol  =         0.00000000
  ---------------------------------------------------
  free energy    TOTEN  =      -274.09751761 eV

  energy without entropy =     -274.09751761  energy(sigma->0) =     -274.09751761


--------------------------------------------------------------------------------------------------------




 average (electrostatic) potential at core
  the test charge radii are     0.9406  1.4837  0.9748
  (the norm of the test charge is              1.0000)
       1 -92.6769       2 -92.6769       3 -94.2224       4 -94.2223       5 -94.0885
       6 -94.7294       7 -94.1147       8 -94.0458       9 -93.5682      10 -93.5681
      11 -93.6655      12 -93.6655      13 -94.1646      14 -94.0195      15 -94.0131
      16 -94.1627      17 -93.9869      18 -93.9869      19 -93.9816      20 -93.9816
      21 -94.7294      22 -94.0886      23 -94.0458      24 -94.1147      25 -93.9985
      26 -93.9985      27 -94.0187      28 -94.0188      29 -94.0195      30 -94.1646
      31 -94.1627      32 -94.0131      33 -93.7016      34 -93.7017      35 -94.0631
      36 -94.1289      37 -92.5393      38 -92.5393      39 -94.0697      40 -94.6555
      41 -93.9765      42 -93.9765      43 -94.1289      44 -94.0631      45 -94.0788
      46 -94.0788      47 -94.6555      48 -94.0697      49 -41.9828      50 -41.5385
      51 -41.8876      52 -41.9095      53 -41.9828      54 -41.8051      55 -41.8876
      56 -42.2134      57 -27.8264      58 -28.1182      59 -28.7416      60 -28.7724
      61 -27.8264      62 -28.1181      63 -28.9004      64 -28.3790      65 -28.6602
      66 -28.6627      67 -28.9003      68 -28.3791      69 -28.6602      70 -28.6627
      71 -28.7417      72 -28.7724      73 -28.5160      74 -28.7523      75 -27.9699
      76 -28.7524      77 -27.9699      78 -28.8408      79 -28.5161      80 -28.8408
 
 
 
 E-fermi :   0.4221     XC(G=0):  -7.8730     alpha+bet : -7.9187


 k-point     1 :       0.0000    0.0000    0.0000
  band No.  band energies     occupation 
      1     -14.6450      2.00000
      2     -14.3827      2.00000
      3     -14.1668      2.00000
      4     -14.1424      2.00000
      5     -14.0826      2.00000
      6     -14.0597      2.00000
      7     -14.0416      2.00000
      8     -13.9201      2.00000
      9     -13.8714      2.00000
     10     -13.8328      2.00000
     11     -13.8065      2.00000
     12     -13.7729      2.00000
     13     -13.7441      2.00000
     14     -13.7318      2.00000
     15     -13.7212      2.00000
     16     -13.6812      2.00000
     17     -13.6768      2.00000
     18     -13.6609      2.00000
     19     -13.6479      2.00000
     20     -13.6005      2.00000
     21     -13.5970      2.00000
     22     -13.5823      2.00000
     23     -13.5798      2.00000
     24     -13.5515      2.00000
     25     -13.5449      2.00000
     26     -13.4993      2.00000
     27     -13.4898      2.00000
     28     -13.4590      2.00000
     29     -13.4528      2.00000
     30     -13.4454      2.00000
     31     -13.4123      2.00000
     32     -13.4074      2.00000
     33     -13.4014      2.00000
     34     -13.3778      2.00000
     35     -13.3585      2.00000
     36     -13.3436      2.00000
     37     -13.3208      2.00000
     38     -13.3018      2.00000
     39     -13.2861      2.00000
     40     -13.2732      2.00000
     41     -13.1726      2.00000
     42     -13.1194      2.00000
     43     -12.9586      2.00000
     44     -12.9303      2.00000
     45     -12.2846      2.00000
     46     -12.2617      2.00000
     47     -12.1451      2.00000
     48     -12.1402      2.00000
     49      -5.5965      2.00000
     50      -5.3089      2.00000
     51      -5.2585      2.00000
     52      -5.1491      2.00000
     53      -5.1215      2.00000
     54      -5.0923      2.00000
     55      -4.9925      2.00000
     56      -4.6694      2.00000
     57      -3.8651      2.00000
     58      -3.6785      2.00000
     59      -3.6771      2.00000
     60      -3.4814      2.00000
     61      -3.4198      2.00000
     62      -3.3909      2.00000
     63      -3.3908      2.00000
     64      -3.3665      2.00000
     65      -3.2694      2.00000
     66      -3.2489      2.00000
     67      -3.2285      2.00000
     68      -3.2283      2.00000
     69      -3.1791      2.00000
     70      -3.0651      2.00000
     71      -3.0415      2.00000
     72      -3.0105      2.00000
     73      -3.0059      2.00000
     74      -2.9715      2.00000
     75      -2.9551      2.00000
     76      -2.8971      2.00000
     77      -2.8229      2.00000
     78      -2.7578      2.00000
     79      -2.7406      2.00000
     80      -2.7342      2.00000
     81      -2.6552      2.00000
     82      -2.6206      2.00000
     83      -2.6143      2.00000
     84      -2.5936      2.00000
     85      -2.5669      2.00000
     86      -2.5523      2.00000
     87      -2.5017      2.00000
     88      -2.4552      2.00000
     89      -2.4121      2.00000
     90      -2.3910      2.00000
     91      -2.3673      2.00000
     92      -2.3516      2.00000
     93      -2.3226      2.00000
     94      -2.3139      2.00000
     95      -2.3064      2.00000
     96      -2.3045      2.00000
     97      -2.2545      2.00000
     98      -2.2209      2.00000
     99      -2.2177      2.00000
    100      -2.1931      2.00000
    101      -2.1635      2.00000
    102      -2.1445      2.00000
    103      -2.1216      2.00000
    104      -2.0646      2.00000
    105      -2.0186      2.00000
    106      -2.0033      2.00000
    107      -1.9698      2.00000
    108      -1.9535      2.00000
    109      -1.9309      2.00000
    110      -1.9110      2.00000
    111      -1.9029      2.00000
    112      -1.8890      2.00000
    113      -1.8565      2.00000
    114      -1.8241      2.00000
    115      -1.8227      2.00000
    116      -1.7928      2.00000
    117      -1.7760      2.00000
    118      -1.7208      2.00000
    119      -1.7021      2.00000
    120      -1.6864      2.00000
    121      -1.6762      2.00000
    122      -1.6748      2.00000
    123      -1.6469      2.00000
    124      -1.6416      2.00000
    125      -1.6114      2.00000
    126      -1.6069      2.00000
    127      -1.5816      2.00000
    128      -1.5576      2.00000
    129      -1.5507      2.00000
    130      -1.5289      2.00000
    131      -1.5194      2.00000
    132      -1.5129      2.00000
    133      -1.4896      2.00000
    134      -1.4638      2.00000
    135      -1.4483      2.00000
    136      -1.4394      2.00000
    137      -1.4310      2.00000
    138      -1.3911      2.00000
    139      -1.3908      2.00000
    140      -1.3802      2.00000
    141      -1.3500      2.00000
    142      -1.3486      2.00000
    143      -1.3321      2.00000
    144      -1.3316      2.00000
    145      -1.3072      2.00000
    146      -1.2976      2.00000
    147      -1.2808      2.00000
    148      -1.2675      2.00000
    149      -1.2530      2.00000
    150      -1.2428      2.00000
    151      -1.2271      2.00000
    152      -1.2099      2.00000
    153      -1.1956      2.00000
    154      -1.1808      2.00000
    155      -1.1783      2.00000
    156      -1.1583      2.00000
    157      -1.1476      2.00000
    158      -1.1188      2.00000
    159      -1.0954      2.00000
    160      -1.0817      2.00000
    161      -1.0814      2.00000
    162      -1.0749      2.00000
    163      -1.0600      2.00000
    164      -1.0547      2.00000
    165      -1.0126      2.00000
    166      -0.9935      2.00000
    167      -0.9802      2.00000
    168      -0.9723      2.00000
    169      -0.9465      2.00000
    170      -0.9310      2.00000
    171      -0.9199      2.00000
    172      -0.9058      2.00000
    173      -0.8804      2.00000
    174      -0.8627      2.00000
    175      -0.8311      2.00000
    176      -0.8016      2.00000
    177      -0.7941      2.00000
    178      -0.7599      2.00000
    179      -0.7545      2.00000
    180      -0.6712      2.00000
    181      -0.6684      2.00000
    182      -0.5977      2.00000
    183      -0.5955      2.00000
    184      -0.5220      2.00000
    185      -0.3600      2.00000
    186      -0.3532      2.00000
    187      -0.3372      2.00000
    188      -0.2732      2.00000
    189      -0.2399      2.00000
    190      -0.2244      2.00000
    191      -0.1598      2.00000
    192      -0.0631      2.00000
    193       2.4828      0.00000
    194       2.8000      0.00000
    195       2.8182      0.00000
    196       2.9409      0.00000
    197       3.1388      0.00000
    198       3.1481      0.00000
    199       3.2250      0.00000
    200       3.4312      0.00000
    201       5.6770      0.00000
    202       5.8138      0.00000
    203       5.9154      0.00000
    204       5.9624      0.00000
    205       6.0657      0.00000
    206       6.0765      0.00000
    207       6.1360      0.00000
    208       6.1856      0.00000
    209       6.2657      0.00000
    210       6.3698      0.00000
    211       6.4903      0.00000
    212       6.5359      0.00000
    213       6.6337      0.00000
    214       6.6418      0.00000
    215       6.6999      0.00000
    216       6.7447      0.00000
    217       6.8260      0.00000
    218       6.8368      0.00000
    219       6.9194      0.00000
    220       6.9728      0.00000
    221       6.9902      0.00000
    222       7.0526      0.00000
    223       7.1806      0.00000
    224       7.2363      0.00000
    225       7.2706      0.00000
    226       7.3656      0.00000
    227       7.4420      0.00000
    228       7.4622      0.00000
    229       7.5420      0.00000
    230       7.5577      0.00000
    231       7.6015      0.00000
    232       7.6963      0.00000
    233       7.7848      0.00000
    234       7.8049      0.00000
    235       7.8218      0.00000
    236       7.8771      0.00000
    237       7.8855      0.00000
    238       7.9059      0.00000
    239       7.9837      0.00000
    240       8.0084      0.00000


--------------------------------------------------------------------------------------------------------


 soft charge-density along one line, spin component           1
         0         1         2         3         4         5         6         7         8         9
 total charge-density along one line
 
 pseudopotential strength for first ion, spin component:           1
 47.402  -0.016  -0.003   0.019   0.003  -0.000   0.000   0.000
 -0.016   0.019  -0.000   0.000   0.000  -0.000   0.000   0.000
 -0.003  -0.000   9.108   0.000  -0.000   0.002  -0.000   0.000
  0.019   0.000   0.000   9.105   0.000  -0.000   0.002  -0.000
  0.003   0.000  -0.000   0.000   9.109   0.000  -0.000   0.002
 -0.000  -0.000   0.002  -0.000   0.000   0.035   0.000  -0.000
  0.000   0.000  -0.000   0.002  -0.000   0.000   0.035   0.000
  0.000   0.000   0.000  -0.000   0.002  -0.000   0.000   0.035
 total augmentation occupancy for first ion, spin component:           1
  1.911   0.427   0.009  -0.060  -0.010   0.012  -0.066  -0.012
  0.427   0.249  -0.054   0.334   0.057   0.013  -0.099  -0.023
  0.009  -0.054   1.759  -0.002   0.003  -0.398  -0.007   0.003
 -0.060   0.334  -0.002   1.797  -0.001  -0.007  -0.330  -0.010
 -0.010   0.057   0.003  -0.001   1.750   0.003  -0.010  -0.422
  0.012   0.013  -0.398  -0.007   0.003   0.101   0.003  -0.000
 -0.066  -0.099  -0.007  -0.330  -0.010   0.003   0.078   0.006
 -0.012  -0.023   0.003  -0.010  -0.422  -0.000   0.006   0.114


------------------------ aborting loop because EDIFF is reached ----------------------------------------


 


 total charge     
 
# of ion       s       p       d       tot
------------------------------------------
    1        1.589   3.591   0.000   5.180
    2        1.589   3.591   0.000   5.180
    3        1.599   3.535   0.000   5.134
    4        1.599   3.535   0.000   5.134
    5        1.598   3.544   0.000   5.141
    6        1.602   3.527   0.000   5.130
    7        1.598   3.539   0.000   5.137
    8        1.599   3.536   0.000   5.135
    9        1.597   3.539   0.000   5.136
   10        1.597   3.539   0.000   5.136
   11        1.594   3.555   0.000   5.149
   12        1.594   3.555   0.000   5.149
   13        1.597   3.549   0.000   5.145
   14        1.598   3.544   0.000   5.143
   15        1.599   3.543   0.000   5.142
   16        1.596   3.550   0.000   5.146
   17        1.597   3.544   0.000   5.141
   18        1.597   3.544   0.000   5.141
   19        1.595   3.548   0.000   5.144
   20        1.595   3.548   0.000   5.144
   21        1.602   3.527   0.000   5.130
   22        1.598   3.544   0.000   5.141
   23        1.599   3.536   0.000   5.135
   24        1.598   3.539   0.000   5.137
   25        1.596   3.561   0.000   5.156
   26        1.596   3.561   0.000   5.156
   27        1.596   3.546   0.000   5.142
   28        1.596   3.546   0.000   5.142
   29        1.598   3.544   0.000   5.143
   30        1.597   3.549   0.000   5.145
   31        1.596   3.550   0.000   5.146
   32        1.599   3.543   0.000   5.142
   33        1.599   3.539   0.000   5.139
   34        1.599   3.539   0.000   5.139
   35        1.596   3.552   0.000   5.148
   36        1.595   3.562   0.000   5.157
   37        1.590   3.591   0.000   5.181
   38        1.590   3.591   0.000   5.181
   39        1.599   3.537   0.000   5.136
   40        1.604   3.522   0.000   5.126
   41        1.600   3.540   0.000   5.140
   42        1.600   3.540   0.000   5.140
   43        1.595   3.562   0.000   5.157
   44        1.596   3.552   0.000   5.148
   45        1.596   3.557   0.000   5.153
   46        1.596   3.557   0.000   5.153
   47        1.604   3.522   0.000   5.126
   48        1.599   3.537   0.000   5.136
   49        0.975   1.144   0.372   2.491
   50        0.966   1.106   0.360   2.432
   51        0.971   1.149   0.383   2.503
   52        0.962   1.117   0.370   2.448
   53        0.975   1.144   0.372   2.491
   54        0.970   1.135   0.375   2.479
   55        0.971   1.149   0.383   2.503
   56        0.974   1.143   0.371   2.487
   57        0.071   0.128   0.000   0.199
   58        0.071   0.133   0.000   0.204
   59        0.056   0.102   0.000   0.158
   60        0.058   0.104   0.000   0.162
   61        0.071   0.128   0.000   0.199
   62        0.071   0.133   0.000   0.204
   63        0.056   0.101   0.000   0.157
   64        0.064   0.115   0.000   0.179
   65        0.061   0.110   0.000   0.171
   66        0.061   0.112   0.000   0.173
   67        0.056   0.101   0.000   0.157
   68        0.064   0.115   0.000   0.179
   69        0.061   0.110   0.000   0.171
   70        0.061   0.112   0.000   0.173
   71        0.056   0.102   0.000   0.158
   72        0.058   0.104   0.000   0.162
   73        0.062   0.110   0.000   0.172
   74        0.060   0.107   0.000   0.167
   75        0.068   0.126   0.000   0.195
   76        0.060   0.107   0.000   0.167
   77        0.068   0.126   0.000   0.195
   78        0.060   0.108   0.000   0.168
   79        0.062   0.110   0.000   0.172
   80        0.060   0.108   0.000   0.168
--------------------------------------------------
tot         85.915 182.104   2.986 271.004
 
    CHARGE:  cpu time    0.2223: real time    0.2224
    FORLOC:  cpu time    0.0568: real time    0.0568
    FORNL :  cpu time    1.4283: real time    1.4295
    STRESS:  cpu time    7.0459: real time    7.0500
    FORCOR:  cpu time    0.1678: real time    0.1680
    FORHAR:  cpu time    0.0812: real time    0.0812
    MIXING:  cpu time    0.0038: real time    0.0038
    OFIELD:  cpu time    0.0000: real time    0.0000

  FORCE on cell =-STRESS in cart. coord.  units (eV):
  Direction    XX          YY          ZZ          XY          YZ          ZX
  --------------------------------------------------------------------------------------
  Alpha Z   310.04809   310.04809   310.04809
  Ewald   -5105.84116 -5451.52839 -4854.83539    -0.00000    -0.00000    23.56017
  Hartree  1544.82928  1336.78347  1692.84660    -0.00000     0.00000     8.44902
  E(xc)   -1403.66409 -1403.57859 -1405.04521     0.00000     0.00000     0.16119
  Local   -4339.34744 -3800.81629 -4720.80978    -0.00000     0.00000   -33.48200
  n-local  4204.01312  4200.72608  4209.60615    -0.00000     0.00000     0.20280
  augment  -980.06397  -981.10205  -979.49424     0.00000    -0.00000    -0.09224
  Kinetic  5770.89881  5792.54024  5748.28762     0.00001     0.00000     1.33268
  Fock        0.00000     0.00000     0.00000     0.00000     0.00000     0.00000
  -------------------------------------------------------------------------------------
  Total       0.87264     3.07258     0.60385     0.00000     0.00000     0.13162
  in kB       0.75123     2.64510     0.51984     0.00000     0.00000     0.11331
  external pressure =        1.31 kB  Pullay stress =        0.00 kB


 VOLUME and BASIS-vectors are now :
 -----------------------------------------------------------------------------
  energy-cutoff  :      520.00
  volume of cell :     1861.11
      direct lattice vectors                 reciprocal lattice vectors
    13.459017910  0.000000000 -0.273085008     0.074898101  0.000000000  0.029495859
     0.000000000 11.456071877  0.000000000     0.000000000  0.087289955  0.000000000
    -4.791777054  0.000000000 12.167640179     0.001680979  0.000000000  0.082847197

  length of vectors
    13.461788088 11.456071877 13.077178399     0.080496777  0.087289955  0.082864248


 FORCES acting on ions
    electron-ion (+dipol)            ewald-force                    non-local-force                 convergence-correction
 -----------------------------------------------------------------------------------------------
   0.142E+02 0.723E+01 0.547E+02   -.143E+02 -.703E+01 -.561E+02   0.163E+00 -.211E+00 0.143E+01   0.228E-02 0.931E-02 -.177E-01
   -.142E+02 0.723E+01 -.547E+02   0.143E+02 -.703E+01 0.561E+02   -.163E+00 -.211E+00 -.143E+01   -.228E-02 0.931E-02 0.177E-01
   0.217E+02 -.723E+02 0.123E+01   -.228E+02 0.745E+02 -.286E+01   0.107E+01 -.213E+01 0.163E+01   -.444E-02 -.466E-02 0.594E-02
   -.217E+02 -.723E+02 -.123E+01   0.228E+02 0.745E+02 0.286E+01   -.107E+01 -.213E+01 -.163E+01   0.444E-02 -.466E-02 -.594E-02
   -.404E+02 -.417E+02 0.372E+01   0.412E+02 0.436E+02 -.289E+01   -.814E+00 -.184E+01 -.822E+00   0.340E-02 -.763E-03 -.811E-02
   -.326E+02 -.388E+02 0.273E+02   0.336E+02 0.398E+02 -.287E+02   -.998E+00 -.916E+00 0.146E+01   -.486E-02 -.462E-03 -.722E-02
   0.224E+02 0.764E+02 -.456E+01   -.235E+02 -.785E+02 0.373E+01   0.112E+01 0.210E+01 0.836E+00   -.771E-02 -.723E-02 -.358E-02
   -.252E+02 0.515E+02 0.162E+02   0.260E+02 -.538E+02 -.150E+02   -.840E+00 0.232E+01 -.125E+01   0.131E-01 0.997E-02 -.105E-01
   -.183E+02 -.450E+02 -.266E+01   0.190E+02 0.468E+02 0.354E+01   -.710E+00 -.176E+01 -.878E+00   0.275E-01 0.156E-01 0.125E-02
   0.183E+02 -.450E+02 0.266E+01   -.190E+02 0.468E+02 -.354E+01   0.710E+00 -.176E+01 0.878E+00   -.275E-01 0.156E-01 -.125E-02
   0.216E+02 0.266E+02 -.676E+01   -.221E+02 -.277E+02 0.653E+01   0.494E+00 0.108E+01 0.222E+00   0.307E-02 0.128E-01 0.632E-02
   -.216E+02 0.266E+02 0.676E+01   0.221E+02 -.277E+02 -.653E+01   -.494E+00 0.108E+01 -.222E+00   -.307E-02 0.128E-01 -.632E-02
   -.266E+02 -.403E+02 0.399E+01   0.278E+02 0.419E+02 -.355E+01   -.118E+01 -.158E+01 -.449E+00   -.100E-03 0.590E-02 0.118E-01
   0.195E+02 -.429E+02 -.148E+02   -.205E+02 0.449E+02 0.140E+02   0.989E+00 -.197E+01 0.789E+00   0.323E-02 0.195E-02 -.214E-02
   0.240E+02 0.589E+02 0.112E+01   -.250E+02 -.612E+02 -.170E+01   0.107E+01 0.228E+01 0.600E+00   -.235E-02 0.485E-02 -.149E-01
   -.155E+02 0.472E+02 -.246E+01   0.163E+02 -.487E+02 0.331E+01   -.771E+00 0.150E+01 -.841E+00   -.763E-03 -.859E-02 -.971E-02
   -.249E+02 -.492E+02 0.727E+01   0.258E+02 0.507E+02 -.640E+01   -.983E+00 -.155E+01 -.876E+00   -.816E-03 0.668E-02 0.452E-02
   0.249E+02 -.492E+02 -.727E+01   -.258E+02 0.507E+02 0.640E+01   0.983E+00 -.155E+01 0.876E+00   0.816E-03 0.668E-02 -.452E-02
   0.187E+02 0.362E+02 -.694E+01   -.195E+02 -.377E+02 0.631E+01   0.781E+00 0.144E+01 0.624E+00   -.440E-02 -.444E-02 -.376E-02
   -.187E+02 0.362E+02 0.694E+01   0.195E+02 -.377E+02 -.631E+01   -.781E+00 0.144E+01 -.624E+00   0.440E-02 -.444E-02 0.376E-02
   0.326E+02 -.388E+02 -.273E+02   -.336E+02 0.398E+02 0.287E+02   0.998E+00 -.916E+00 -.146E+01   0.486E-02 -.462E-03 0.722E-02
   0.404E+02 -.417E+02 -.372E+01   -.412E+02 0.436E+02 0.289E+01   0.814E+00 -.184E+01 0.822E+00   -.340E-02 -.763E-03 0.811E-02
   0.252E+02 0.515E+02 -.162E+02   -.260E+02 -.538E+02 0.150E+02   0.840E+00 0.232E+01 0.125E+01   -.131E-01 0.997E-02 0.105E-01
   -.224E+02 0.764E+02 0.456E+01   0.235E+02 -.785E+02 -.373E+01   -.112E+01 0.210E+01 -.836E+00   0.771E-02 -.723E-02 0.358E-02
   -.253E+02 -.371E+02 0.532E+01   0.256E+02 0.386E+02 -.481E+01   -.283E+00 -.147E+01 -.513E+00   0.132E-01 -.783E-02 0.280E-02
   0.253E+02 -.371E+02 -.532E+01   -.256E+02 0.386E+02 0.481E+01   0.283E+00 -.147E+01 0.513E+00   -.132E-01 -.783E-02 -.280E-02
   0.247E+02 0.293E+02 -.736E+01   -.255E+02 -.305E+02 0.642E+01   0.847E+00 0.117E+01 0.944E+00   0.168E-02 -.173E-01 -.995E-03
   -.247E+02 0.293E+02 0.736E+01   0.255E+02 -.305E+02 -.642E+01   -.847E+00 0.117E+01 -.944E+00   -.168E-02 -.173E-01 0.995E-03
   -.195E+02 -.429E+02 0.148E+02   0.205E+02 0.449E+02 -.140E+02   -.989E+00 -.197E+01 -.789E+00   -.323E-02 0.195E-02 0.214E-02
   0.266E+02 -.403E+02 -.399E+01   -.278E+02 0.419E+02 0.355E+01   0.118E+01 -.158E+01 0.449E+00   0.100E-03 0.590E-02 -.118E-01
   0.155E+02 0.472E+02 0.246E+01   -.163E+02 -.487E+02 -.331E+01   0.771E+00 0.150E+01 0.841E+00   0.763E-03 -.859E-02 0.971E-02
   -.240E+02 0.589E+02 -.112E+01   0.250E+02 -.612E+02 0.170E+01   -.107E+01 0.228E+01 -.600E+00   0.235E-02 0.485E-02 0.149E-01
   -.532E+02 -.122E+02 0.924E+00   0.558E+02 0.122E+02 -.136E+01   -.262E+01 -.210E-01 0.449E+00   -.324E-02 0.230E-01 -.143E-01
   0.532E+02 -.122E+02 -.925E+00   -.558E+02 0.122E+02 0.136E+01   0.262E+01 -.210E-01 -.449E+00   0.324E-02 0.230E-01 0.143E-01
   -.442E+02 0.749E+01 -.181E+02   0.458E+02 -.773E+01 0.174E+02   -.153E+01 0.238E+00 0.718E+00   -.109E-01 0.869E-02 -.918E-02
   0.384E+02 0.724E+01 0.130E+02   -.398E+02 -.693E+01 -.127E+02   0.145E+01 -.295E+00 -.326E+00   0.735E-02 -.107E-01 0.109E-02
   0.879E+01 -.304E+02 -.570E+02   -.881E+01 0.304E+02 0.586E+02   0.190E-01 -.177E-01 -.158E+01   -.843E-03 0.991E-02 -.709E-02
   -.879E+01 -.304E+02 0.570E+02   0.881E+01 0.304E+02 -.586E+02   -.190E-01 -.177E-01 0.158E+01   0.843E-03 0.991E-02 0.709E-02
   -.561E+02 0.536E+01 -.172E+02   0.587E+02 -.497E+01 0.165E+02   -.264E+01 -.368E+00 0.746E+00   -.708E-03 -.196E-01 -.100E-01
   0.157E+02 0.634E+02 -.212E+02   -.165E+02 -.650E+02 0.226E+02   0.789E+00 0.160E+01 -.137E+01   0.180E-01 -.571E-03 0.708E-02
   -.545E+02 -.480E+01 -.141E+02   0.572E+02 0.466E+01 0.138E+02   -.274E+01 0.146E+00 0.291E+00   -.636E-02 -.490E-04 -.562E-02
   0.545E+02 -.480E+01 0.141E+02   -.572E+02 0.466E+01 -.138E+02   0.274E+01 0.146E+00 -.291E+00   0.636E-02 -.490E-04 0.562E-02
   -.384E+02 0.724E+01 -.130E+02   0.398E+02 -.693E+01 0.127E+02   -.145E+01 -.295E+00 0.326E+00   -.735E-02 -.107E-01 -.109E-02
   0.442E+02 0.749E+01 0.181E+02   -.458E+02 -.773E+01 -.174E+02   0.153E+01 0.238E+00 -.718E+00   0.109E-01 0.869E-02 0.918E-02
   -.539E+02 -.838E+01 -.243E+02   0.557E+02 0.836E+01 0.239E+02   -.178E+01 0.269E-01 0.404E+00   -.630E-02 -.710E-02 -.317E-02
   0.539E+02 -.838E+01 0.243E+02   -.557E+02 0.836E+01 -.239E+02   0.178E+01 0.269E-01 -.404E+00   0.630E-02 -.710E-02 0.317E-02
   -.157E+02 0.634E+02 0.212E+02   0.165E+02 -.650E+02 -.226E+02   -.789E+00 0.160E+01 0.137E+01   -.180E-01 -.571E-03 -.708E-02
   0.561E+02 0.536E+01 0.172E+02   -.587E+02 -.497E+01 -.165E+02   0.264E+01 -.368E+00 -.746E+00   0.708E-03 -.196E-01 0.100E-01
   -.773E+01 0.957E+01 0.125E+01   0.934E+01 -.105E+02 -.116E+01   -.161E+01 0.958E+00 -.798E-01   -.907E-03 -.323E-03 -.134E-03
   -.490E-06 -.216E+01 -.937E-06   -.358E-05 0.333E+01 -.690E-05   0.000E+00 -.117E+01 0.000E+00   -.231E-08 -.228E-03 0.152E-08
   -.297E+01 0.327E+01 -.364E+01   0.263E+01 -.342E+01 0.270E+01   0.342E+00 0.151E+00 0.930E+00   -.464E-03 -.119E-02 0.652E-03
   0.640E-06 -.270E+01 0.981E-06   0.468E-05 0.309E+01 0.720E-05   0.000E+00 -.384E+00 0.000E+00   0.535E-09 0.853E-03 -.218E-08
   0.773E+01 0.957E+01 -.125E+01   -.934E+01 -.105E+02 0.116E+01   0.161E+01 0.958E+00 0.798E-01   0.907E-03 -.323E-03 0.134E-03
   -.493E-06 0.282E+01 -.894E-06   -.361E-05 -.262E+01 -.657E-05   0.000E+00 -.197E+00 0.000E+00   -.648E-09 -.105E-02 0.234E-08
   0.297E+01 0.327E+01 0.364E+01   -.263E+01 -.342E+01 -.270E+01   -.342E+00 0.151E+00 -.930E+00   0.464E-03 -.119E-02 -.652E-03
   0.235E-07 -.126E+02 0.146E-05   0.138E-06 0.140E+02 0.109E-04   0.000E+00 -.133E+01 0.000E+00   0.130E-08 0.290E-03 -.285E-08
   0.506E+00 -.874E+01 0.274E+01   -.125E+00 0.784E+01 -.341E+01   -.382E+00 0.895E+00 0.678E+00   -.202E-03 0.526E-03 -.300E-03
   0.319E+01 0.467E+01 -.381E+00   -.271E+01 -.348E+01 0.586E+00   -.477E+00 -.118E+01 -.203E+00   0.170E-03 0.466E-04 0.190E-03
   -.311E+01 -.406E+01 -.468E+01   0.297E+01 0.397E+01 0.461E+01   0.135E+00 0.944E-01 0.785E-01   0.947E-04 -.201E-03 -.126E-03
   -.834E+00 0.104E+02 -.123E+01   0.785E+00 -.972E+01 0.124E+01   0.516E-01 -.683E+00 -.470E-02   -.176E-03 -.362E-03 -.620E-04
   -.506E+00 -.874E+01 -.274E+01   0.125E+00 0.784E+01 0.341E+01   0.382E+00 0.895E+00 -.678E+00   0.202E-03 0.526E-03 0.300E-03
   -.319E+01 0.467E+01 0.381E+00   0.271E+01 -.348E+01 -.586E+00   0.477E+00 -.118E+01 0.203E+00   -.170E-03 0.466E-04 -.190E-03
   0.176E+01 -.545E+01 -.348E+01   -.143E+01 0.509E+01 0.304E+01   -.337E+00 0.361E+00 0.436E+00   0.285E-03 -.293E-03 0.155E-03
   -.603E+00 -.140E-01 -.247E-01   0.759E-01 -.787E+00 -.278E+00   0.527E+00 0.798E+00 0.302E+00   -.679E-03 0.218E-03 -.266E-03
   -.132E+01 -.807E+01 0.834E+00   0.138E+01 0.741E+01 -.753E+00   -.553E-01 0.659E+00 -.797E-01   0.620E-03 0.721E-04 -.123E-03
   0.386E+00 0.812E+01 -.659E+00   -.411E+00 -.734E+01 0.647E+00   0.257E-01 -.778E+00 0.133E-01   0.230E-04 -.281E-03 -.587E-04
   -.176E+01 -.545E+01 0.348E+01   0.143E+01 0.509E+01 -.304E+01   0.337E+00 0.361E+00 -.436E+00   -.285E-03 -.293E-03 -.155E-03
   0.603E+00 -.140E-01 0.247E-01   -.759E-01 -.787E+00 0.278E+00   -.527E+00 0.798E+00 -.302E+00   0.679E-03 0.218E-03 0.266E-03
   0.132E+01 -.807E+01 -.834E+00   -.138E+01 0.741E+01 0.753E+00   0.553E-01 0.659E+00 0.797E-01   -.620E-03 0.721E-04 0.123E-03
   -.386E+00 0.812E+01 0.659E+00   0.411E+00 -.734E+01 -.647E+00   -.257E-01 -.778E+00 -.133E-01   -.230E-04 -.281E-03 0.587E-04
   0.311E+01 -.406E+01 0.468E+01   -.297E+01 0.397E+01 -.461E+01   -.135E+00 0.944E-01 -.785E-01   -.947E-04 -.201E-03 0.126E-03
   0.834E+00 0.104E+02 0.123E+01   -.785E+00 -.972E+01 -.124E+01   -.516E-01 -.683E+00 0.470E-02   0.176E-03 -.362E-03 0.620E-04
   0.466E+01 0.443E+01 0.438E+01   -.497E+01 -.335E+01 -.452E+01   0.314E+00 -.108E+01 0.141E+00   -.725E-04 0.614E-04 -.121E-03
   -.273E+01 0.629E+00 -.444E+00   0.264E+01 -.678E+00 0.336E+00   0.846E-01 0.493E-01 0.109E+00   0.337E-03 0.197E-03 -.337E-03
   -.545E+01 -.172E+01 -.421E+00   0.444E+01 0.178E+01 0.781E+00   0.101E+01 -.547E-01 -.357E+00   0.680E-04 0.531E-03 -.155E-03
   0.273E+01 0.629E+00 0.444E+00   -.264E+01 -.678E+00 -.336E+00   -.846E-01 0.493E-01 -.109E+00   -.337E-03 0.197E-03 0.337E-03
   0.545E+01 -.172E+01 0.421E+00   -.444E+01 0.178E+01 -.781E+00   -.101E+01 -.547E-01 0.357E+00   -.680E-04 0.531E-03 0.155E-03
   0.924E+00 0.194E+01 0.348E+00   -.792E+00 -.225E+01 -.918E-02   -.131E+00 0.314E+00 -.336E+00   -.189E-04 -.507E-03 -.406E-03
   -.466E+01 0.443E+01 -.438E+01   0.497E+01 -.335E+01 0.452E+01   -.314E+00 -.108E+01 -.141E+00   0.725E-04 0.614E-04 0.121E-03
   -.924E+00 0.194E+01 -.348E+00   0.792E+00 -.225E+01 0.917E-02   0.131E+00 0.314E+00 0.336E+00   0.189E-04 -.507E-03 0.406E-03
 -----------------------------------------------------------------------------------------------
   0.274E-03 0.245E+01 -.697E-03   -.444E-14 0.201E-12 0.348E-13   0.500E-15 -.249E+01 -.111E-15   -.917E-08 0.357E-01 0.113E-09
 
 
 POSITION                                       TOTAL-FORCE (eV/Angst)
 -----------------------------------------------------------------------------------
      1.01283      1.91771      1.90468        -0.000508      0.000327      0.006821
      7.65441      1.91771      9.98988         0.000508      0.000327     -0.006821
      7.77230      9.34197     10.18448        -0.000708     -0.003458      0.006596
      0.89494      9.34197      1.71007         0.000708     -0.003458     -0.006596
      4.19721      7.46017      1.64564        -0.003025     -0.002003     -0.001719
     -2.65631      7.54718     10.69739         0.001192      0.002541      0.001835
     -2.33515      4.07563     10.44921        -0.001024     -0.002941      0.002193
      4.22757      3.97352      1.60234         0.000575      0.002308     -0.003026
     -1.48969      1.72327      7.74382        -0.001414     -0.000900      0.001476
     10.15693      1.72327      4.15074         0.001414     -0.000900     -0.001476
     10.07872      9.61596      4.15909        -0.000394     -0.002986     -0.002516
     -1.41148      9.61596      7.73546         0.000394     -0.002986      0.002516
      2.05105      7.46515      7.58733         0.002096      0.004983      0.001943
     -0.04111      7.40045      4.47189        -0.000274      0.002851     -0.000238
     -0.08924      3.92727      4.63516        -0.000046     -0.003123      0.002023
      1.88014      4.01727      7.76846         0.002216     -0.003784      0.001758
      7.67963      1.75940      1.49645         0.002970      0.003308      0.000747
      0.98761      1.75940     10.39811        -0.002970      0.003308     -0.000747
      1.04758      9.71664     10.39195        -0.002869     -0.004176     -0.001737
      7.61966      9.71664      1.50261         0.002869     -0.004176      0.001737
     11.32356      7.54718      1.19717        -0.001192      0.002541     -0.001835
      4.47003      7.46017     10.24891         0.003025     -0.002003      0.001719
      4.43967      3.97352     10.29222        -0.000575      0.002308      0.003026
     11.00239      4.07563      1.44535         0.001024     -0.002941     -0.002193
      5.08122      1.80980      7.57651         0.003010      0.005955      0.003483
      3.58602      1.80980      4.31804        -0.003010      0.005955     -0.003483
      3.37834      9.75904      4.19793        -0.003407     -0.004123     -0.001235
      5.28890      9.75904      7.69662         0.003407     -0.004123      0.001235
      8.70835      7.40045      7.42266         0.000274      0.002851      0.000238
      6.61619      7.46515      4.30723        -0.002096      0.004983     -0.001943
      6.78710      4.01727      4.12609        -0.002216     -0.003784     -0.001758
      8.75648      3.92727      7.25939         0.000046     -0.003123     -0.002023
     -0.33346     11.32650      4.64954        -0.001955     -0.004360     -0.002138
      9.00070     11.32650      7.24502         0.001955     -0.004360      0.002138
      2.98666      5.62403      4.51084        -0.003589      0.000334      0.002582
     -1.12521      5.88741      7.61534         0.000200      0.000952      0.003552
     -2.53748     11.32953     10.68946        -0.003137     -0.001985     -0.004987
     11.20472     11.32953      1.20510         0.003137     -0.001985      0.004987
      0.60220      5.97973     10.66347        -0.001606     -0.000054     -0.000076
      1.11919      5.82273      1.32494         0.003111      0.002641      0.001226
      6.45405     11.37249      4.59143        -0.002980     -0.000238     -0.002738
      2.21319     11.37249      7.30312         0.002980     -0.000238      0.002738
      9.79246      5.88741      4.27922        -0.000200      0.000952     -0.003552
      5.68058      5.62403      7.38371         0.003589      0.000334     -0.002582
      4.01508      0.03901     10.53442        -0.002276      0.001023     -0.002157
      4.65216      0.03901      1.36014         0.002276      0.001023      0.002157
      7.54805      5.82273     10.56961        -0.003111      0.002641     -0.001226
      8.06504      5.97973      1.23109         0.001606     -0.000054      0.000076
      3.41297      5.68722     -0.00961        -0.000184      0.002954      0.004391
     -2.39589      0.00703      6.08382        -0.000000     -0.003215     -0.000000
      0.95265      5.70938      6.07140         0.001841     -0.002509     -0.001365
      6.72951      0.04026     -0.13654        -0.000000      0.005909     -0.000000
      5.25427      5.68722     11.90416         0.000184      0.002954     -0.004391
      4.33362     11.40029      5.94728        -0.000000      0.000422     -0.000000
      7.71459      5.70938      5.82316        -0.001841     -0.002509      0.001365
      0.00000      7.78667      0.00000         0.000000      0.002932     -0.000000
     12.36509      1.40018      2.47794        -0.001431     -0.003673      0.003634
     -3.43218      9.87150      9.15506        -0.000655      0.001018      0.002549
      2.11048      7.61713      3.14721        -0.000240     -0.001050      0.001280
     -0.20251      4.12793      9.15425         0.002092      0.006897      0.004149
     -3.69785      1.40018      9.41662         0.001431     -0.003673     -0.003634
     12.09942      9.87150      2.73949         0.000655      0.001018     -0.002549
     -0.00900      7.76153      8.86812        -0.000950      0.001870     -0.001110
      1.99534      3.48429      3.28150        -0.000974     -0.003136     -0.001323
      5.72185      1.65070      3.02190         0.003455     -0.001640      0.001357
      3.11668      9.80467      8.97867         0.000826      0.004446      0.000361
      8.67624      7.76153      3.02644         0.000950      0.001870      0.001110
      6.67190      3.48429      8.61305         0.000974     -0.003136      0.001323
      2.94539      1.65070      8.87266        -0.003455     -0.001640     -0.001357
      5.55056      9.80467      2.91589        -0.000826      0.004446     -0.000361
      6.55676      7.61713      8.74735         0.000240     -0.001050     -0.001280
      8.86975      4.12793      2.74031        -0.002092      0.006897     -0.004149
      2.45102      0.29802      2.63155         0.000296      0.001844      0.000177
      5.20714      5.70070      3.12505        -0.002040     -0.000335      0.000809
     -0.66960      0.01390      9.35296        -0.000536     -0.000776      0.002770
      3.46010      5.70070      8.76951         0.002040     -0.000335     -0.000809
      9.33684      0.01390      2.54160         0.000536     -0.000776     -0.002770
     12.04640      5.57616      3.16568         0.000059     -0.002029      0.001713
      6.21622      0.29802      9.26301        -0.000296      0.001844     -0.000177
     -3.37916      5.57616      8.72888        -0.000059     -0.002029     -0.001713
 -----------------------------------------------------------------------------------
    total drift:                                0.000274     -0.000615     -0.000697


--------------------------------------------------------------------------------------------------------



  FREE ENERGIE OF THE ION-ELECTRON SYSTEM (eV)
  ---------------------------------------------------
  free  energy   TOTEN  =      -274.09751761 eV

  energy  without entropy=     -274.09751761  energy(sigma->0) =     -274.09751761
 
 d Force = 0.1558610E-03[ 0.818E-04, 0.230E-03]  d Energy = 0.1935540E-03-0.377E-04
 d Force =-0.2172346E+00[-0.219E+00,-0.216E+00]  d Ewald  =-0.2172352E+00 0.647E-06


--------------------------------------------------------------------------------------------------------


    POTLOK:  cpu time    0.2899: real time    0.2900


--------------------------------------------------------------------------------------------------------




--------------------------------------------------------------------------------------------------------


    WAVPRE:  cpu time    0.0690: real time    0.0711
    FEWALD:  cpu time    0.0017: real time    0.0017
    ORTHCH:  cpu time    0.9020: real time    0.9032
     LOOP+:  cpu time   28.8688: real time   28.9128


--------------------------------------- Iteration     12(   1)  ---------------------------------------


    POTLOK:  cpu time    0.1296: real time    0.1317
    SETDIJ:  cpu time    0.1584: real time    0.1584
     EDDAV:  cpu time    5.8242: real time    5.8280
       DOS:  cpu time    0.0003: real time    0.0003
    CHARGE:  cpu time    0.2233: real time    0.2234
    MIXING:  cpu time    0.0045: real time    0.0045
    --------------------------------------------
      LOOP:  cpu time    6.3403: real time    6.3462

 eigenvalue-minimisations  :   560
 total energy-change (2. order) :-0.4936649E-04  (-0.1239446E-02)
 number of electron     383.9999999 magnetization 
 augmentation part      -49.4172905 magnetization 

 Broyden mixing:
  rms(total) = 0.23518E-02    rms(broyden)= 0.23515E-02
  rms(prec ) = 0.27127E-02
  weight for this iteration     100.00

 Free energy of the ion-electron system (eV)
  ---------------------------------------------------
  alpha Z        PSCENC =       310.04809462
  Ewald energy   TEWEN  =    -15412.03713838
  -Hartree energ DENC   =     -4574.51085465
  -exchange      EXHF   =         0.00000000
  -V(xc)+E(xc)   XCENC  =       447.04838976
  PAW double counting   =     11244.32542232   -10653.61623812
  entropy T*S    EENTRO =        -0.00000000
  eigenvalues    EBANDS =     -1859.61439939
  atomic energy  EATOM  =     20224.25915541
  Solvation  Ediel_sol  =         0.00000000
  ---------------------------------------------------
  free energy    TOTEN  =      -274.09756844 eV

  energy without entropy =     -274.09756844  energy(sigma->0) =     -274.09756844


--------------------------------------------------------------------------------------------------------




--------------------------------------- Iteration     12(   2)  ---------------------------------------


    POTLOK:  cpu time    0.1306: real time    0.1352
    SETDIJ:  cpu time    0.1575: real time    0.1576
     EDDAV:  cpu time    5.8158: real time    5.8235
       DOS:  cpu time    0.0003: real time    0.0003
    CHARGE:  cpu time    0.2230: real time    0.2231
    MIXING:  cpu time    0.0046: real time    0.0046
    --------------------------------------------
      LOOP:  cpu time    6.3317: real time    6.3442

 eigenvalue-minimisations  :   560
 total energy-change (2. order) :-0.5047721E-04  (-0.5627217E-04)
 number of electron     383.9999999 magnetization 
 augmentation part      -49.4173206 magnetization 

 Broyden mixing:
  rms(total) = 0.10013E-02    rms(broyden)= 0.10006E-02
  rms(prec ) = 0.12744E-02
  weight for this iteration     100.00

 eigenvalues of (default mixing * dielectric matrix)
  average eigenvalue GAMMA=   0.9577
  0.9577

 Free energy of the ion-electron system (eV)
  ---------------------------------------------------
  alpha Z        PSCENC =       310.04809462
  Ewald energy   TEWEN  =    -15412.03713838
  -Hartree energ DENC   =     -4574.50954783
  -exchange      EXHF   =         0.00000000
  -V(xc)+E(xc)   XCENC  =       447.04828483
  PAW double counting   =     11244.32086686   -10653.61162515
  entropy T*S    EENTRO =        -0.00000000
  eigenvalues    EBANDS =     -1859.61570927
  atomic energy  EATOM  =     20224.25915541
  Solvation  Ediel_sol  =         0.00000000
  ---------------------------------------------------
  free energy    TOTEN  =      -274.09761892 eV

  energy without entropy =     -274.09761892  energy(sigma->0) =     -274.09761892


--------------------------------------------------------------------------------------------------------




--------------------------------------- Iteration     12(   3)  ---------------------------------------


    POTLOK:  cpu time    0.1308: real time    0.1351
    SETDIJ:  cpu time    0.1572: real time    0.1572
     EDDAV:  cpu time    4.4995: real time    4.5025
       DOS:  cpu time    0.0002: real time    0.0002
    --------------------------------------------
      LOOP:  cpu time    4.7877: real time    4.7949

 eigenvalue-minimisations  :   400
 total energy-change (2. order) : 0.8586758E-06  (-0.1002125E-05)
 number of electron     383.9999999 magnetization 
 augmentation part      -49.4173206 magnetization 

 Free energy of the ion-electron system (eV)
  ---------------------------------------------------
  alpha Z        PSCENC =       310.04809462
  Ewald energy   TEWEN  =    -15412.03713838
  -Hartree energ DENC   =     -4574.50984088
  -exchange      EXHF   =         0.00000000
  -V(xc)+E(xc)   XCENC  =       447.04827206
  PAW double counting   =     11244.31992786   -10653.61065766
  entropy T*S    EENTRO =        -0.00000000
  eigenvalues    EBANDS =     -1859.61543109
  atomic energy  EATOM  =     20224.25915541
  Solvation  Ediel_sol  =         0.00000000
  ---------------------------------------------------
  free energy    TOTEN  =      -274.09761806 eV

  energy without entropy =     -274.09761806  energy(sigma->0) =     -274.09761806


--------------------------------------------------------------------------------------------------------




 average (electrostatic) potential at core
  the test charge radii are     0.9406  1.4837  0.9748
  (the norm of the test charge is              1.0000)
       1 -92.6778       2 -92.6778       3 -94.2226       4 -94.2226       5 -94.0893
       6 -94.7290       7 -94.1144       8 -94.0454       9 -93.5684      10 -93.5684
      11 -93.6648      12 -93.6648      13 -94.1639      14 -94.0189      15 -94.0133
      16 -94.1635      17 -93.9878      18 -93.9878      19 -93.9807      20 -93.9807
      21 -94.7290      22 -94.0893      23 -94.0454      24 -94.1144      25 -93.9980
      26 -93.9980      27 -94.0193      28 -94.0193      29 -94.0189      30 -94.1639
      31 -94.1634      32 -94.0133      33 -93.7015      34 -93.7015      35 -94.0636
      36 -94.1284      37 -92.5395      38 -92.5395      39 -94.0691      40 -94.6551
      41 -93.9773      42 -93.9773      43 -94.1284      44 -94.0637      45 -94.0795
      46 -94.0795      47 -94.6551      48 -94.0690      49 -41.9826      50 -41.5380
      51 -41.8876      52 -41.9097      53 -41.9826      54 -41.8056      55 -41.8876
      56 -42.2127      57 -27.8264      58 -28.1176      59 -28.7422      60 -28.7729
      61 -27.8264      62 -28.1176      63 -28.8995      64 -28.3783      65 -28.6603
      66 -28.6632      67 -28.8995      68 -28.3784      69 -28.6604      70 -28.6632
      71 -28.7422      72 -28.7728      73 -28.5155      74 -28.7522      75 -27.9703
      76 -28.7523      77 -27.9703      78 -28.8411      79 -28.5155      80 -28.8411
 
 
 
 E-fermi :   0.4220     XC(G=0):  -7.8730     alpha+bet : -7.9187


 k-point     1 :       0.0000    0.0000    0.0000
  band No.  band energies     occupation 
      1     -14.6452      2.00000
      2     -14.3828      2.00000
      3     -14.1667      2.00000
      4     -14.1422      2.00000
      5     -14.0826      2.00000
      6     -14.0594      2.00000
      7     -14.0415      2.00000
      8     -13.9200      2.00000
      9     -13.8712      2.00000
     10     -13.8328      2.00000
     11     -13.8064      2.00000
     12     -13.7730      2.00000
     13     -13.7443      2.00000
     14     -13.7318      2.00000
     15     -13.7211      2.00000
     16     -13.6814      2.00000
     17     -13.6770      2.00000
     18     -13.6610      2.00000
     19     -13.6476      2.00000
     20     -13.6006      2.00000
     21     -13.5969      2.00000
     22     -13.5823      2.00000
     23     -13.5796      2.00000
     24     -13.5519      2.00000
     25     -13.5449      2.00000
     26     -13.4991      2.00000
     27     -13.4899      2.00000
     28     -13.4587      2.00000
     29     -13.4526      2.00000
     30     -13.4453      2.00000
     31     -13.4122      2.00000
     32     -13.4073      2.00000
     33     -13.4014      2.00000
     34     -13.3781      2.00000
     35     -13.3584      2.00000
     36     -13.3435      2.00000
     37     -13.3208      2.00000
     38     -13.3018      2.00000
     39     -13.2861      2.00000
     40     -13.2739      2.00000
     41     -13.1723      2.00000
     42     -13.1192      2.00000
     43     -12.9586      2.00000
     44     -12.9303      2.00000
     45     -12.2852      2.00000
     46     -12.2623      2.00000
     47     -12.1456      2.00000
     48     -12.1407      2.00000
     49      -5.5966      2.00000
     50      -5.3087      2.00000
     51      -5.2585      2.00000
     52      -5.1489      2.00000
     53      -5.1214      2.00000
     54      -5.0922      2.00000
     55      -4.9925      2.00000
     56      -4.6692      2.00000
     57      -3.8651      2.00000
     58      -3.6785      2.00000
     59      -3.6772      2.00000
     60      -3.4814      2.00000
     61      -3.4201      2.00000
     62      -3.3908      2.00000
     63      -3.3908      2.00000
     64      -3.3663      2.00000
     65      -3.2695      2.00000
     66      -3.2488      2.00000
     67      -3.2284      2.00000
     68      -3.2282      2.00000
     69      -3.1789      2.00000
     70      -3.0649      2.00000
     71      -3.0415      2.00000
     72      -3.0104      2.00000
     73      -3.0057      2.00000
     74      -2.9714      2.00000
     75      -2.9553      2.00000
     76      -2.8971      2.00000
     77      -2.8227      2.00000
     78      -2.7581      2.00000
     79      -2.7406      2.00000
     80      -2.7340      2.00000
     81      -2.6552      2.00000
     82      -2.6206      2.00000
     83      -2.6144      2.00000
     84      -2.5936      2.00000
     85      -2.5667      2.00000
     86      -2.5525      2.00000
     87      -2.5017      2.00000
     88      -2.4551      2.00000
     89      -2.4122      2.00000
     90      -2.3909      2.00000
     91      -2.3672      2.00000
     92      -2.3514      2.00000
     93      -2.3226      2.00000
     94      -2.3140      2.00000
     95      -2.3064      2.00000
     96      -2.3044      2.00000
     97      -2.2543      2.00000
     98      -2.2209      2.00000
     99      -2.2177      2.00000
    100      -2.1931      2.00000
    101      -2.1634      2.00000
    102      -2.1444      2.00000
    103      -2.1215      2.00000
    104      -2.0646      2.00000
    105      -2.0186      2.00000
    106      -2.0033      2.00000
    107      -1.9696      2.00000
    108      -1.9535      2.00000
    109      -1.9309      2.00000
    110      -1.9109      2.00000
    111      -1.9028      2.00000
    112      -1.8891      2.00000
    113      -1.8566      2.00000
    114      -1.8242      2.00000
    115      -1.8227      2.00000
    116      -1.7927      2.00000
    117      -1.7761      2.00000
    118      -1.7208      2.00000
    119      -1.7021      2.00000
    120      -1.6864      2.00000
    121      -1.6761      2.00000
    122      -1.6749      2.00000
    123      -1.6470      2.00000
    124      -1.6417      2.00000
    125      -1.6114      2.00000
    126      -1.6070      2.00000
    127      -1.5815      2.00000
    128      -1.5576      2.00000
    129      -1.5508      2.00000
    130      -1.5288      2.00000
    131      -1.5195      2.00000
    132      -1.5129      2.00000
    133      -1.4897      2.00000
    134      -1.4638      2.00000
    135      -1.4481      2.00000
    136      -1.4396      2.00000
    137      -1.4311      2.00000
    138      -1.3911      2.00000
    139      -1.3907      2.00000
    140      -1.3803      2.00000
    141      -1.3502      2.00000
    142      -1.3488      2.00000
    143      -1.3323      2.00000
    144      -1.3317      2.00000
    145      -1.3072      2.00000
    146      -1.2976      2.00000
    147      -1.2808      2.00000
    148      -1.2675      2.00000
    149      -1.2532      2.00000
    150      -1.2429      2.00000
    151      -1.2271      2.00000
    152      -1.2099      2.00000
    153      -1.1956      2.00000
    154      -1.1808      2.00000
    155      -1.1784      2.00000
    156      -1.1583      2.00000
    157      -1.1479      2.00000
    158      -1.1188      2.00000
    159      -1.0956      2.00000
    160      -1.0818      2.00000
    161      -1.0813      2.00000
    162      -1.0750      2.00000
    163      -1.0601      2.00000
    164      -1.0549      2.00000
    165      -1.0129      2.00000
    166      -0.9934      2.00000
    167      -0.9803      2.00000
    168      -0.9726      2.00000
    169      -0.9465      2.00000
    170      -0.9312      2.00000
    171      -0.9199      2.00000
    172      -0.9059      2.00000
    173      -0.8803      2.00000
    174      -0.8625      2.00000
    175      -0.8312      2.00000
    176      -0.8018      2.00000
    177      -0.7943      2.00000
    178      -0.7601      2.00000
    179      -0.7544      2.00000
    180      -0.6714      2.00000
    181      -0.6686      2.00000
    182      -0.5981      2.00000
    183      -0.5957      2.00000
    184      -0.5223      2.00000
    185      -0.3601      2.00000
    186      -0.3538      2.00000
    187      -0.3377      2.00000
    188      -0.2736      2.00000
    189      -0.2400      2.00000
    190      -0.2246      2.00000
    191      -0.1601      2.00000
    192      -0.0634      2.00000
    193       2.4833      0.00000
    194       2.8011      0.00000
    195       2.8186      0.00000
    196       2.9402      0.00000
    197       3.1376      0.00000
    198       3.1478      0.00000
    199       3.2244      0.00000
    200       3.4311      0.00000
    201       5.6776      0.00000
    202       5.8141      0.00000
    203       5.9157      0.00000
    204       5.9625      0.00000
    205       6.0656      0.00000
    206       6.0766      0.00000
    207       6.1357      0.00000
    208       6.1856      0.00000
    209       6.2657      0.00000
    210       6.3698      0.00000
    211       6.4904      0.00000
    212       6.5359      0.00000
    213       6.6335      0.00000
    214       6.6418      0.00000
    215       6.6993      0.00000
    216       6.7445      0.00000
    217       6.8255      0.00000
    218       6.8372      0.00000
    219       6.9193      0.00000
    220       6.9726      0.00000
    221       6.9902      0.00000
    222       7.0522      0.00000
    223       7.1805      0.00000
    224       7.2364      0.00000
    225       7.2702      0.00000
    226       7.3656      0.00000
    227       7.4421      0.00000
    228       7.4622      0.00000
    229       7.5422      0.00000
    230       7.5576      0.00000
    231       7.6016      0.00000
    232       7.6962      0.00000
    233       7.7848      0.00000
    234       7.8048      0.00000
    235       7.8220      0.00000
    236       7.8769      0.00000
    237       7.8856      0.00000
    238       7.9056      0.00000
    239       7.9836      0.00000
    240       8.0084      0.00000


--------------------------------------------------------------------------------------------------------


 soft charge-density along one line, spin component           1
         0         1         2         3         4         5         6         7         8         9
 total charge-density along one line
 
 pseudopotential strength for first ion, spin component:           1
 47.402  -0.016  -0.003   0.019   0.003  -0.000   0.000   0.000
 -0.016   0.019  -0.000   0.000   0.000  -0.000   0.000   0.000
 -0.003  -0.000   9.108   0.000  -0.000   0.002  -0.000   0.000
  0.019   0.000   0.000   9.105   0.000  -0.000   0.002  -0.000
  0.003   0.000  -0.000   0.000   9.109   0.000  -0.000   0.002
 -0.000  -0.000   0.002  -0.000   0.000   0.035   0.000  -0.000
  0.000   0.000  -0.000   0.002  -0.000   0.000   0.035   0.000
  0.000   0.000   0.000  -0.000   0.002  -0.000   0.000   0.035
 total augmentation occupancy for first ion, spin component:           1
  1.911   0.427   0.009  -0.060  -0.010   0.011  -0.066  -0.012
  0.427   0.249  -0.054   0.335   0.057   0.013  -0.099  -0.023
  0.009  -0.054   1.759  -0.002   0.003  -0.398  -0.007   0.003
 -0.060   0.335  -0.002   1.797  -0.001  -0.007  -0.330  -0.010
 -0.010   0.057   0.003  -0.001   1.750   0.003  -0.010  -0.422
  0.011   0.013  -0.398  -0.007   0.003   0.100   0.003  -0.000
 -0.066  -0.099  -0.007  -0.330  -0.010   0.003   0.078   0.006
 -0.012  -0.023   0.003  -0.010  -0.422  -0.000   0.006   0.114


------------------------ aborting loop because EDIFF is reached ----------------------------------------


 


 total charge     
 
# of ion       s       p       d       tot
------------------------------------------
    1        1.589   3.591   0.000   5.180
    2        1.589   3.591   0.000   5.180
    3        1.599   3.535   0.000   5.134
    4        1.599   3.535   0.000   5.134
    5        1.598   3.544   0.000   5.141
    6        1.602   3.527   0.000   5.130
    7        1.598   3.539   0.000   5.137
    8        1.599   3.536   0.000   5.135
    9        1.597   3.539   0.000   5.136
   10        1.597   3.539   0.000   5.136
   11        1.594   3.555   0.000   5.149
   12        1.594   3.555   0.000   5.149
   13        1.597   3.549   0.000   5.145
   14        1.598   3.544   0.000   5.143
   15        1.599   3.543   0.000   5.142
   16        1.596   3.550   0.000   5.146
   17        1.597   3.544   0.000   5.141
   18        1.597   3.544   0.000   5.141
   19        1.595   3.548   0.000   5.144
   20        1.595   3.548   0.000   5.144
   21        1.602   3.527   0.000   5.130
   22        1.598   3.544   0.000   5.141
   23        1.599   3.536   0.000   5.135
   24        1.598   3.539   0.000   5.137
   25        1.596   3.561   0.000   5.156
   26        1.596   3.561   0.000   5.156
   27        1.596   3.546   0.000   5.142
   28        1.596   3.546   0.000   5.142
   29        1.598   3.544   0.000   5.143
   30        1.597   3.549   0.000   5.145
   31        1.596   3.550   0.000   5.146
   32        1.599   3.543   0.000   5.142
   33        1.599   3.539   0.000   5.139
   34        1.599   3.539   0.000   5.139
   35        1.596   3.552   0.000   5.147
   36        1.595   3.562   0.000   5.157
   37        1.590   3.591   0.000   5.181
   38        1.590   3.591   0.000   5.181
   39        1.599   3.537   0.000   5.136
   40        1.604   3.522   0.000   5.126
   41        1.600   3.540   0.000   5.140
   42        1.600   3.540   0.000   5.140
   43        1.595   3.562   0.000   5.157
   44        1.596   3.552   0.000   5.147
   45        1.596   3.557   0.000   5.153
   46        1.596   3.557   0.000   5.153
   47        1.604   3.522   0.000   5.126
   48        1.599   3.537   0.000   5.136
   49        0.975   1.144   0.372   2.492
   50        0.966   1.106   0.360   2.432
   51        0.971   1.149   0.383   2.502
   52        0.962   1.117   0.370   2.448
   53        0.975   1.144   0.372   2.492
   54        0.970   1.134   0.375   2.479
   55        0.971   1.149   0.383   2.502
   56        0.974   1.143   0.371   2.488
   57        0.071   0.128   0.000   0.199
   58        0.071   0.133   0.000   0.204
   59        0.056   0.102   0.000   0.158
   60        0.058   0.104   0.000   0.162
   61        0.071   0.128   0.000   0.199
   62        0.071   0.133   0.000   0.204
   63        0.056   0.101   0.000   0.157
   64        0.064   0.115   0.000   0.179
   65        0.061   0.110   0.000   0.171
   66        0.061   0.112   0.000   0.173
   67        0.056   0.101   0.000   0.157
   68        0.064   0.115   0.000   0.179
   69        0.061   0.110   0.000   0.171
   70        0.061   0.112   0.000   0.173
   71        0.056   0.102   0.000   0.158
   72        0.058   0.104   0.000   0.162
   73        0.062   0.110   0.000   0.172
   74        0.060   0.107   0.000   0.167
   75        0.068   0.126   0.000   0.195
   76        0.060   0.107   0.000   0.167
   77        0.068   0.126   0.000   0.195
   78        0.060   0.108   0.000   0.168
   79        0.062   0.110   0.000   0.172
   80        0.060   0.108   0.000   0.168
--------------------------------------------------
tot         85.915 182.104   2.985 271.004
 
    CHARGE:  cpu time    0.2225: real time    0.2226
    FORLOC:  cpu time    0.0569: real time    0.0569
    FORNL :  cpu time    1.4232: real time    1.4237
    STRESS:  cpu time    7.0471: real time    7.0522
    FORCOR:  cpu time    0.1675: real time    0.1677
    FORHAR:  cpu time    0.0811: real time    0.0811
    MIXING:  cpu time    0.0037: real time    0.0037
    OFIELD:  cpu time    0.0000: real time    0.0000

  FORCE on cell =-STRESS in cart. coord.  units (eV):
  Direction    XX          YY          ZZ          XY          YZ          ZX
  --------------------------------------------------------------------------------------
  Alpha Z   310.04809   310.04809   310.04809
  Ewald   -5105.76886 -5451.33759 -4855.02034    -0.00000    -0.00000    23.46888
  Hartree  1544.85335  1336.90693  1692.75042    -0.00000     0.00000     8.41786
  E(xc)   -1403.66558 -1403.57840 -1405.04521     0.00000     0.00000     0.16177
  Local   -4339.43827 -3801.12314 -4720.53879    -0.00000     0.00000   -33.38286
  n-local  4204.01694  4200.71723  4209.59390    -0.00000     0.00000     0.19959
  augment  -980.06300  -981.10032  -979.49379     0.00000     0.00000    -0.09141
  Kinetic  5770.88536  5792.52774  5748.31340     0.00001     0.00000     1.34923
  Fock        0.00000     0.00000     0.00000     0.00000     0.00000     0.00000
  -------------------------------------------------------------------------------------
  Total       0.86804     3.06054     0.60768     0.00000     0.00000     0.12306
  in kB       0.74728     2.63474     0.52314     0.00000     0.00000     0.10594
  external pressure =        1.30 kB  Pullay stress =        0.00 kB


 VOLUME and BASIS-vectors are now :
 -----------------------------------------------------------------------------
  energy-cutoff  :      520.00
  volume of cell :     1861.11
      direct lattice vectors                 reciprocal lattice vectors
    13.459017910  0.000000000 -0.273085008     0.074898101  0.000000000  0.029495859
     0.000000000 11.456071877  0.000000000     0.000000000  0.087289955  0.000000000
    -4.791777054  0.000000000 12.167640179     0.001680979  0.000000000  0.082847197

  length of vectors
    13.461788088 11.456071877 13.077178399     0.080496777  0.087289955  0.082864248


 FORCES acting on ions
    electron-ion (+dipol)            ewald-force                    non-local-force                 convergence-correction
 -----------------------------------------------------------------------------------------------
   0.142E+02 0.724E+01 0.547E+02   -.143E+02 -.702E+01 -.561E+02   0.158E+00 -.216E+00 0.144E+01   -.136E-03 -.119E-04 -.961E-02
   -.142E+02 0.724E+01 -.547E+02   0.143E+02 -.702E+01 0.561E+02   -.158E+00 -.216E+00 -.144E+01   0.136E-03 -.119E-04 0.961E-02
   0.217E+02 -.724E+02 0.129E+01   -.228E+02 0.745E+02 -.290E+01   0.107E+01 -.213E+01 0.162E+01   -.219E-02 0.467E-02 -.595E-02
   -.217E+02 -.724E+02 -.129E+01   0.228E+02 0.745E+02 0.290E+01   -.107E+01 -.213E+01 -.162E+01   0.219E-02 0.467E-02 0.595E-02
   -.404E+02 -.418E+02 0.366E+01   0.412E+02 0.436E+02 -.285E+01   -.815E+00 -.183E+01 -.813E+00   0.408E-02 0.296E-02 0.116E-02
   -.326E+02 -.388E+02 0.273E+02   0.336E+02 0.397E+02 -.287E+02   -.995E+00 -.921E+00 0.146E+01   -.160E-02 -.245E-02 -.323E-02
   0.224E+02 0.763E+02 -.456E+01   -.235E+02 -.785E+02 0.372E+01   0.113E+01 0.211E+01 0.836E+00   -.163E-02 0.110E-02 -.235E-02
   -.252E+02 0.515E+02 0.162E+02   0.260E+02 -.538E+02 -.150E+02   -.846E+00 0.231E+01 -.124E+01   0.209E-02 -.201E-02 0.270E-02
   -.183E+02 -.450E+02 -.265E+01   0.190E+02 0.468E+02 0.353E+01   -.724E+00 -.177E+01 -.878E+00   0.651E-02 0.277E-02 -.205E-02
   0.183E+02 -.450E+02 0.265E+01   -.190E+02 0.468E+02 -.353E+01   0.724E+00 -.177E+01 0.878E+00   -.651E-02 0.277E-02 0.205E-02
   0.217E+02 0.265E+02 -.678E+01   -.221E+02 -.276E+02 0.655E+01   0.492E+00 0.108E+01 0.219E+00   0.145E-02 0.580E-02 0.488E-02
   -.217E+02 0.265E+02 0.678E+01   0.221E+02 -.276E+02 -.655E+01   -.492E+00 0.108E+01 -.219E+00   -.145E-02 0.580E-02 -.488E-02
   -.266E+02 -.403E+02 0.402E+01   0.278E+02 0.419E+02 -.356E+01   -.119E+01 -.159E+01 -.457E+00   -.178E-02 -.509E-02 -.977E-03
   0.195E+02 -.428E+02 -.148E+02   -.205E+02 0.448E+02 0.140E+02   0.988E+00 -.197E+01 0.789E+00   -.186E-03 -.296E-02 0.821E-03
   0.240E+02 0.589E+02 0.109E+01   -.250E+02 -.612E+02 -.169E+01   0.107E+01 0.229E+01 0.609E+00   -.372E-03 0.418E-02 -.305E-02
   -.155E+02 0.472E+02 -.247E+01   0.162E+02 -.487E+02 0.332E+01   -.777E+00 0.151E+01 -.836E+00   -.165E-02 0.297E-02 -.478E-02
   -.249E+02 -.491E+02 0.728E+01   0.258E+02 0.507E+02 -.640E+01   -.983E+00 -.155E+01 -.880E+00   -.304E-02 -.360E-02 -.157E-02
   0.249E+02 -.491E+02 -.728E+01   -.258E+02 0.507E+02 0.640E+01   0.983E+00 -.155E+01 0.880E+00   0.304E-02 -.360E-02 0.157E-02
   0.187E+02 0.362E+02 -.698E+01   -.195E+02 -.376E+02 0.635E+01   0.787E+00 0.145E+01 0.628E+00   0.256E-02 0.485E-02 0.297E-02
   -.187E+02 0.362E+02 0.699E+01   0.195E+02 -.376E+02 -.635E+01   -.787E+00 0.145E+01 -.628E+00   -.256E-02 0.485E-02 -.297E-02
   0.326E+02 -.388E+02 -.273E+02   -.336E+02 0.397E+02 0.287E+02   0.995E+00 -.921E+00 -.146E+01   0.160E-02 -.245E-02 0.323E-02
   0.404E+02 -.418E+02 -.366E+01   -.412E+02 0.436E+02 0.285E+01   0.815E+00 -.183E+01 0.813E+00   -.408E-02 0.296E-02 -.116E-02
   0.252E+02 0.515E+02 -.162E+02   -.260E+02 -.538E+02 0.150E+02   0.846E+00 0.231E+01 0.124E+01   -.209E-02 -.201E-02 -.270E-02
   -.224E+02 0.763E+02 0.456E+01   0.235E+02 -.785E+02 -.372E+01   -.113E+01 0.211E+01 -.836E+00   0.163E-02 0.110E-02 0.235E-02
   -.253E+02 -.370E+02 0.537E+01   0.256E+02 0.385E+02 -.485E+01   -.295E+00 -.147E+01 -.520E+00   -.249E-02 -.820E-02 -.435E-02
   0.253E+02 -.370E+02 -.537E+01   -.256E+02 0.385E+02 0.485E+01   0.295E+00 -.147E+01 0.520E+00   0.249E-02 -.820E-02 0.435E-02
   0.246E+02 0.293E+02 -.738E+01   -.255E+02 -.304E+02 0.643E+01   0.851E+00 0.118E+01 0.947E+00   0.334E-02 0.306E-02 0.198E-02
   -.246E+02 0.293E+02 0.738E+01   0.255E+02 -.304E+02 -.643E+01   -.851E+00 0.118E+01 -.947E+00   -.334E-02 0.306E-02 -.198E-02
   -.195E+02 -.428E+02 0.148E+02   0.205E+02 0.448E+02 -.140E+02   -.988E+00 -.197E+01 -.789E+00   0.186E-03 -.296E-02 -.821E-03
   0.266E+02 -.403E+02 -.402E+01   -.278E+02 0.419E+02 0.356E+01   0.119E+01 -.159E+01 0.457E+00   0.178E-02 -.509E-02 0.977E-03
   0.155E+02 0.472E+02 0.247E+01   -.162E+02 -.487E+02 -.332E+01   0.777E+00 0.151E+01 0.836E+00   0.165E-02 0.297E-02 0.478E-02
   -.240E+02 0.589E+02 -.109E+01   0.250E+02 -.612E+02 0.169E+01   -.107E+01 0.229E+01 -.609E+00   0.372E-03 0.418E-02 0.305E-02
   -.532E+02 -.122E+02 0.867E+00   0.558E+02 0.122E+02 -.133E+01   -.262E+01 -.319E-01 0.461E+00   0.182E-02 0.639E-02 0.164E-02
   0.532E+02 -.122E+02 -.867E+00   -.558E+02 0.122E+02 0.133E+01   0.262E+01 -.319E-01 -.461E+00   -.182E-02 0.639E-02 -.164E-02
   -.442E+02 0.750E+01 -.181E+02   0.458E+02 -.773E+01 0.174E+02   -.152E+01 0.234E+00 0.721E+00   0.253E-02 -.169E-03 -.370E-02
   0.384E+02 0.727E+01 0.130E+02   -.398E+02 -.697E+01 -.127E+02   0.144E+01 -.293E+00 -.328E+00   0.123E-02 -.251E-02 -.466E-02
   0.877E+01 -.305E+02 -.571E+02   -.880E+01 0.305E+02 0.586E+02   0.226E-01 -.204E-01 -.157E+01   0.366E-02 0.436E-02 0.615E-02
   -.877E+01 -.305E+02 0.571E+02   0.880E+01 0.305E+02 -.586E+02   -.226E-01 -.204E-01 0.157E+01   -.366E-02 0.436E-02 -.615E-02
   -.561E+02 0.535E+01 -.172E+02   0.588E+02 -.499E+01 0.165E+02   -.264E+01 -.358E+00 0.751E+00   0.204E-02 -.110E-02 -.120E-02
   0.158E+02 0.635E+02 -.213E+02   -.166E+02 -.650E+02 0.226E+02   0.775E+00 0.160E+01 -.138E+01   -.861E-03 -.229E-02 0.607E-03
   -.545E+02 -.482E+01 -.141E+02   0.572E+02 0.467E+01 0.138E+02   -.273E+01 0.147E+00 0.296E+00   0.909E-03 0.363E-03 0.284E-02
   0.545E+02 -.482E+01 0.141E+02   -.572E+02 0.467E+01 -.138E+02   0.273E+01 0.147E+00 -.296E+00   -.909E-03 0.363E-03 -.284E-02
   -.384E+02 0.727E+01 -.130E+02   0.398E+02 -.697E+01 0.127E+02   -.144E+01 -.293E+00 0.328E+00   -.123E-02 -.251E-02 0.466E-02
   0.442E+02 0.750E+01 0.181E+02   -.458E+02 -.773E+01 -.174E+02   0.152E+01 0.234E+00 -.721E+00   -.253E-02 -.169E-03 0.370E-02
   -.539E+02 -.839E+01 -.243E+02   0.557E+02 0.836E+01 0.239E+02   -.178E+01 0.304E-01 0.408E+00   0.120E-02 -.892E-03 0.218E-02
   0.539E+02 -.839E+01 0.243E+02   -.557E+02 0.836E+01 -.239E+02   0.178E+01 0.304E-01 -.408E+00   -.120E-02 -.892E-03 -.218E-02
   -.158E+02 0.635E+02 0.213E+02   0.166E+02 -.650E+02 -.226E+02   -.775E+00 0.160E+01 0.138E+01   0.861E-03 -.229E-02 -.607E-03
   0.561E+02 0.535E+01 0.172E+02   -.588E+02 -.499E+01 -.165E+02   0.264E+01 -.358E+00 -.751E+00   -.204E-02 -.110E-02 0.120E-02
   -.773E+01 0.960E+01 0.127E+01   0.934E+01 -.105E+02 -.118E+01   -.161E+01 0.952E+00 -.842E-01   -.386E-03 0.262E-03 -.588E-04
   -.491E-06 -.217E+01 -.936E-06   -.358E-05 0.334E+01 -.689E-05   0.847E-21 -.117E+01 0.000E+00   -.698E-09 -.329E-03 -.807E-09
   -.295E+01 0.326E+01 -.365E+01   0.261E+01 -.342E+01 0.272E+01   0.338E+00 0.156E+00 0.934E+00   -.182E-04 -.518E-03 0.475E-03
   0.640E-06 -.269E+01 0.981E-06   0.469E-05 0.308E+01 0.720E-05   -.847E-21 -.391E+00 0.000E+00   -.431E-09 0.691E-03 0.399E-10
   0.773E+01 0.960E+01 -.127E+01   -.934E+01 -.105E+02 0.118E+01   0.161E+01 0.952E+00 0.842E-01   0.386E-03 0.262E-03 0.588E-04
   -.494E-06 0.280E+01 -.894E-06   -.362E-05 -.261E+01 -.657E-05   0.000E+00 -.194E+00 0.000E+00   0.124E-08 0.271E-03 -.751E-09
   0.295E+01 0.326E+01 0.365E+01   -.261E+01 -.342E+01 -.272E+01   -.338E+00 0.156E+00 -.934E+00   0.182E-04 -.518E-03 -.475E-03
   0.231E-07 -.126E+02 0.146E-05   0.135E-06 0.139E+02 0.109E-04   0.000E+00 -.134E+01 0.000E+00   0.132E-08 -.745E-03 -.299E-08
   0.497E+00 -.875E+01 0.274E+01   -.118E+00 0.785E+01 -.342E+01   -.381E+00 0.896E+00 0.677E+00   0.243E-04 0.591E-04 -.142E-03
   0.319E+01 0.467E+01 -.377E+00   -.272E+01 -.349E+01 0.583E+00   -.477E+00 -.118E+01 -.204E+00   -.360E-04 0.658E-04 -.453E-04
   -.311E+01 -.406E+01 -.469E+01   0.297E+01 0.397E+01 0.461E+01   0.135E+00 0.946E-01 0.782E-01   0.961E-04 -.284E-04 0.120E-03
   -.834E+00 0.104E+02 -.123E+01   0.785E+00 -.973E+01 0.124E+01   0.514E-01 -.683E+00 -.520E-02   0.538E-04 -.160E-03 -.258E-03
   -.497E+00 -.875E+01 -.274E+01   0.118E+00 0.785E+01 0.342E+01   0.381E+00 0.896E+00 -.677E+00   -.243E-04 0.591E-04 0.142E-03
   -.319E+01 0.467E+01 0.377E+00   0.272E+01 -.349E+01 -.583E+00   0.477E+00 -.118E+01 0.204E+00   0.360E-04 0.658E-04 0.453E-04
   0.176E+01 -.544E+01 -.348E+01   -.142E+01 0.508E+01 0.304E+01   -.336E+00 0.360E+00 0.437E+00   0.947E-04 -.911E-04 -.107E-03
   -.600E+00 -.273E-01 -.231E-01   0.719E-01 -.775E+00 -.280E+00   0.527E+00 0.800E+00 0.302E+00   -.425E-04 0.116E-03 0.476E-04
   -.132E+01 -.807E+01 0.834E+00   0.138E+01 0.741E+01 -.753E+00   -.557E-01 0.659E+00 -.801E-01   0.560E-04 -.219E-03 0.143E-04
   0.383E+00 0.812E+01 -.662E+00   -.408E+00 -.734E+01 0.649E+00   0.259E-01 -.779E+00 0.133E-01   0.135E-03 0.227E-03 -.230E-04
   -.176E+01 -.544E+01 0.348E+01   0.142E+01 0.508E+01 -.304E+01   0.336E+00 0.360E+00 -.437E+00   -.947E-04 -.911E-04 0.107E-03
   0.600E+00 -.273E-01 0.231E-01   -.719E-01 -.775E+00 0.280E+00   -.527E+00 0.800E+00 -.302E+00   0.425E-04 0.116E-03 -.476E-04
   0.132E+01 -.807E+01 -.834E+00   -.138E+01 0.741E+01 0.753E+00   0.557E-01 0.659E+00 0.801E-01   -.560E-04 -.219E-03 -.143E-04
   -.383E+00 0.812E+01 0.662E+00   0.408E+00 -.734E+01 -.649E+00   -.259E-01 -.779E+00 -.133E-01   -.135E-03 0.227E-03 0.230E-04
   0.311E+01 -.406E+01 0.469E+01   -.297E+01 0.397E+01 -.461E+01   -.135E+00 0.946E-01 -.782E-01   -.961E-04 -.284E-04 -.120E-03
   0.834E+00 0.104E+02 0.123E+01   -.785E+00 -.973E+01 -.124E+01   -.514E-01 -.683E+00 0.520E-02   -.538E-04 -.160E-03 0.258E-03
   0.466E+01 0.444E+01 0.438E+01   -.497E+01 -.335E+01 -.452E+01   0.314E+00 -.108E+01 0.141E+00   0.188E-03 -.107E-03 -.490E-04
   -.273E+01 0.628E+00 -.448E+00   0.264E+01 -.678E+00 0.338E+00   0.846E-01 0.494E-01 0.110E+00   0.108E-04 0.652E-05 0.203E-03
   -.546E+01 -.173E+01 -.421E+00   0.444E+01 0.178E+01 0.781E+00   0.101E+01 -.544E-01 -.358E+00   0.229E-03 0.187E-03 0.408E-04
   0.273E+01 0.628E+00 0.448E+00   -.264E+01 -.678E+00 -.338E+00   -.846E-01 0.494E-01 -.110E+00   -.108E-04 0.652E-05 -.203E-03
   0.546E+01 -.173E+01 0.421E+00   -.444E+01 0.178E+01 -.781E+00   -.101E+01 -.544E-01 0.358E+00   -.229E-03 0.187E-03 -.408E-04
   0.920E+00 0.194E+01 0.348E+00   -.789E+00 -.226E+01 -.980E-02   -.131E+00 0.314E+00 -.336E+00   0.118E-03 -.787E-04 0.786E-04
   -.466E+01 0.444E+01 -.438E+01   0.497E+01 -.335E+01 0.452E+01   -.314E+00 -.108E+01 -.141E+00   -.188E-03 -.107E-03 0.490E-04
   -.920E+00 0.194E+01 -.348E+00   0.789E+00 -.226E+01 0.980E-02   0.131E+00 0.314E+00 0.336E+00   -.118E-03 -.787E-04 -.786E-04
 -----------------------------------------------------------------------------------------------
   0.274E-03 0.250E+01 -.697E-03   0.163E-12 -.275E-13 0.368E-13   -.158E-14 -.252E+01 0.444E-15   0.115E-09 0.237E-01 -.120E-07
 
 
 POSITION                                       TOTAL-FORCE (eV/Angst)
 -----------------------------------------------------------------------------------
      1.01270      1.91761      1.90539        -0.001410      0.000033      0.005375
      7.65454      1.91761      9.98916         0.001410      0.000033     -0.005375
      7.77228      9.34177     10.18483        -0.001297     -0.001721      0.003800
      0.89496      9.34177      1.70972         0.001297     -0.001721     -0.003800
      4.19694      7.46005      1.64565        -0.002030     -0.000225     -0.000073
     -2.65617      7.54732     10.69762         0.000960      0.002064      0.001046
     -2.33511      4.07551     10.44936        -0.000379     -0.001530      0.001818
      4.22741      3.97355      1.60225         0.000276      0.002735     -0.003147
     -1.49010      1.72306      7.74397        -0.001529     -0.001062      0.001465
     10.15734      1.72306      4.15059         0.001529     -0.001062     -0.001465
     10.07869      9.61565      4.15885        -0.000170     -0.002362     -0.002163
     -1.41145      9.61565      7.73570         0.000170     -0.002362      0.002163
      2.05122      7.46542      7.58732         0.000983      0.002955      0.001249
     -0.04116      7.40056      4.47188         0.000433      0.000737      0.000548
     -0.08924      3.92696      4.63551        -0.000386     -0.002482      0.001721
      1.88023      4.01714      7.76874         0.001145     -0.002542      0.002027
      7.67987      1.75956      1.49646         0.002793      0.002933      0.001031
      0.98737      1.75956     10.39809        -0.002793      0.002933     -0.001031
      1.04747      9.71643     10.39187        -0.001419     -0.001687     -0.000373
      7.61977      9.71643      1.50269         0.001419     -0.001687      0.000373
     11.32341      7.54732      1.19693        -0.000960      0.002064     -0.001046
      4.47030      7.46005     10.24891         0.002030     -0.000225      0.000073
      4.43983      3.97355     10.29231        -0.000276      0.002735      0.003147
     11.00235      4.07551      1.44519         0.000379     -0.001530     -0.001818
      5.08122      1.81030      7.57670         0.001317      0.003299      0.001490
      3.58602      1.81030      4.31786        -0.001317      0.003299     -0.001490
      3.37811      9.75898      4.19785        -0.002363     -0.002645     -0.000814
      5.28913      9.75898      7.69671         0.002363     -0.002645      0.000814
      8.70840      7.40056      7.42268        -0.000433      0.000737     -0.000548
      6.61602      7.46542      4.30723        -0.000983      0.002955     -0.001249
      6.78701      4.01714      4.12582        -0.001145     -0.002542     -0.002027
      8.75648      3.92696      7.25904         0.000386     -0.002482     -0.001721
     -0.33352     11.32584      4.64960        -0.001190     -0.004144     -0.001576
      9.00076     11.32584      7.24495         0.001190     -0.004144      0.001576
      2.98656      5.62395      4.51115        -0.002395      0.000389      0.001568
     -1.12528      5.88758      7.61556         0.001630      0.000475      0.002380
     -2.53771     11.32931     10.68926        -0.002673     -0.001439     -0.003404
     11.20495     11.32931      1.20529         0.002673     -0.001439      0.003404
      0.60214      5.98007     10.66364        -0.001551     -0.000082      0.000089
      1.11915      5.82286      1.32494         0.001949      0.001287      0.001268
      6.45396     11.37246      4.59133        -0.002602     -0.000248     -0.001811
      2.21328     11.37246      7.30322         0.002602     -0.000248      0.001811
      9.79252      5.88758      4.27899        -0.001630      0.000475     -0.002380
      5.68068      5.62395      7.38340         0.002395      0.000389     -0.001568
      4.01499      0.03922     10.53432        -0.002217      0.000801     -0.001585
      4.65225      0.03922      1.36023         0.002217      0.000801      0.001585
      7.54809      5.82286     10.56961        -0.001949      0.001287     -0.001268
      8.06510      5.98007      1.23092         0.001551     -0.000082     -0.000089
      3.41279      5.68753     -0.00947         0.000378      0.000508      0.003527
     -2.39589      0.00660      6.08382        -0.000000     -0.003198     -0.000000
      0.95278      5.70914      6.07143         0.000091      0.000094     -0.000514
      6.72951      0.04072     -0.13654        -0.000000      0.002446     -0.000000
      5.25445      5.68753     11.90402        -0.000378      0.000508     -0.003527
      4.33362     11.40037      5.94728        -0.000000      0.002034     -0.000000
      7.71446      5.70914      5.82313        -0.000091      0.000094      0.000514
      0.00000      7.78677      0.00000        -0.000000      0.000617     -0.000000
     12.36476      1.39983      2.47845        -0.001059     -0.003438      0.004027
     -3.43226      9.87143      9.15536        -0.000737      0.000154      0.001747
      2.11050      7.61707      3.14743        -0.000679     -0.001022      0.001294
     -0.20223      4.12872      9.15477         0.001832      0.006928      0.004284
     -3.69752      1.39983      9.41611         0.001059     -0.003438     -0.004027
     12.09950      9.87143      2.73920         0.000737      0.000154     -0.001747
     -0.00905      7.76182      8.86791        -0.000505      0.001973     -0.001019
      1.99532      3.48409      3.28157        -0.000807     -0.002647     -0.000899
      5.72227      1.65064      3.02211         0.003055     -0.001082      0.001216
      3.11676      9.80503      8.97874         0.000548      0.003799      0.000420
      8.67629      7.76182      3.02665         0.000505      0.001973      0.001019
      6.67193      3.48409      8.61299         0.000807     -0.002647      0.000899
      2.94497      1.65064      8.87245        -0.003055     -0.001082     -0.001216
      5.55048      9.80503      2.91581        -0.000548      0.003799     -0.000420
      6.55674      7.61707      8.74713         0.000679     -0.001022     -0.001294
      8.86947      4.12872      2.73979        -0.001832      0.006928     -0.004284
      2.45119      0.29817      2.63162         0.000433      0.001871      0.000566
      5.20695      5.70071      3.12510        -0.001866     -0.000388      0.000479
     -0.66976      0.01377      9.35326        -0.000253     -0.001009      0.002148
      3.46029      5.70071      8.76945         0.001866     -0.000388     -0.000479
      9.33700      0.01377      2.54130         0.000253     -0.001009     -0.002148
     12.04640      5.57595      3.16584         0.000160     -0.002231      0.001728
      6.21605      0.29817      9.26294        -0.000433      0.001871     -0.000566
     -3.37916      5.57595      8.72871        -0.000160     -0.002231     -0.001728
 -----------------------------------------------------------------------------------
    total drift:                                0.000274     -0.000185     -0.000697


--------------------------------------------------------------------------------------------------------



  FREE ENERGIE OF THE ION-ELECTRON SYSTEM (eV)
  ---------------------------------------------------
  free  energy   TOTEN  =      -274.09761806 eV

  energy  without entropy=     -274.09761806  energy(sigma->0) =     -274.09761806
 
 d Force = 0.1047598E-03[ 0.915E-04, 0.118E-03]  d Energy = 0.1004453E-03 0.431E-05
 d Force =-0.7812611E-01[-0.784E-01,-0.778E-01]  d Ewald  =-0.7812678E-01 0.674E-06


--------------------------------------------------------------------------------------------------------


    POTLOK:  cpu time    0.3143: real time    0.3200


--------------------------------------------------------------------------------------------------------


 Conjugate gradient step on ions:
 trial-energy change:   -0.000100  1 .order   -0.000105   -0.000118   -0.000092
  (g-gl).g = 0.418E-04      g.g   = 0.767E-04  gl.gl    = 0.158E-03
 g(Force)  = 0.767E-04   g(Stress)= 0.000E+00 ortho     = 0.432E-04
 gamma     =   0.26429
 trial     =   1.33866
 opt step  =   5.35463  (harmonic =   5.97140) maximal distance =0.00318918
 next E    =  -274.097781   (d E  =  -0.00026)


--------------------------------------------------------------------------------------------------------


    WAVPRE:  cpu time    0.0740: real time    0.0760
    FEWALD:  cpu time    0.0074: real time    0.0079
    ORTHCH:  cpu time    0.8973: real time    0.9004
     LOOP+:  cpu time   27.9317: real time   27.9796


--------------------------------------- Iteration     13(   1)  ---------------------------------------


    POTLOK:  cpu time    0.1287: real time    0.1431
    SETDIJ:  cpu time    0.1575: real time    0.1575
     EDDAV:  cpu time    5.1462: real time    5.1524
       DOS:  cpu time    0.0002: real time    0.0002
    CHARGE:  cpu time    0.2230: real time    0.2233
    MIXING:  cpu time    0.0040: real time    0.0040
    --------------------------------------------
      LOOP:  cpu time    5.6596: real time    5.6806

 eigenvalue-minimisations  :   480
 total energy-change (2. order) : 0.3060268E-03  (-0.1161283E-01)
 number of electron     384.0000000 magnetization 
 augmentation part      -49.4171925 magnetization 

 Broyden mixing:
  rms(total) = 0.63818E-02    rms(broyden)= 0.63810E-02
  rms(prec ) = 0.73248E-02
  weight for this iteration     100.00

 Free energy of the ion-electron system (eV)
  ---------------------------------------------------
  alpha Z        PSCENC =       310.04809462
  Ewald energy   TEWEN  =    -15411.79903696
  -Hartree energ DENC   =     -4574.69115778
  -exchange      EXHF   =         0.00000000
  -V(xc)+E(xc)   XCENC  =       447.04979258
  PAW double counting   =     11244.31819951   -10653.60886046
  entropy T*S    EENTRO =        -0.00000000
  eigenvalues    EBANDS =     -1859.67349981
  atomic energy  EATOM  =     20224.25915541
  Solvation  Ediel_sol  =         0.00000000
  ---------------------------------------------------
  free energy    TOTEN  =      -274.09731289 eV

  energy without entropy =     -274.09731289  energy(sigma->0) =     -274.09731289


--------------------------------------------------------------------------------------------------------




--------------------------------------- Iteration     13(   2)  ---------------------------------------


    POTLOK:  cpu time    0.1305: real time    0.1346
    SETDIJ:  cpu time    0.1569: real time    0.1570
     EDDAV:  cpu time    5.9990: real time    6.0194
       DOS:  cpu time    0.0002: real time    0.0002
    CHARGE:  cpu time    0.2996: real time    0.3008
    MIXING:  cpu time    0.0057: real time    0.0057
    --------------------------------------------
      LOOP:  cpu time    6.5919: real time    6.6177

 eigenvalue-minimisations  :   560
 total energy-change (2. order) :-0.4915298E-03  (-0.5385921E-03)
 number of electron     384.0000000 magnetization 
 augmentation part      -49.4173338 magnetization 

 Broyden mixing:
  rms(total) = 0.21223E-02    rms(broyden)= 0.21193E-02
  rms(prec ) = 0.28939E-02
  weight for this iteration     100.00

 eigenvalues of (default mixing * dielectric matrix)
  average eigenvalue GAMMA=   0.8882
  0.8882

 Free energy of the ion-electron system (eV)
  ---------------------------------------------------
  alpha Z        PSCENC =       310.04809462
  Ewald energy   TEWEN  =    -15411.79903696
  -Hartree energ DENC   =     -4574.68711128
  -exchange      EXHF   =         0.00000000
  -V(xc)+E(xc)   XCENC  =       447.04928332
  PAW double counting   =     11244.30054277   -10653.59100732
  entropy T*S    EENTRO =        -0.00000000
  eigenvalues    EBANDS =     -1859.67772497
  atomic energy  EATOM  =     20224.25915541
  Solvation  Ediel_sol  =         0.00000000
  ---------------------------------------------------
  free energy    TOTEN  =      -274.09780442 eV

  energy without entropy =     -274.09780442  energy(sigma->0) =     -274.09780442


--------------------------------------------------------------------------------------------------------




--------------------------------------- Iteration     13(   3)  ---------------------------------------


    POTLOK:  cpu time    0.2061: real time    0.2231
    SETDIJ:  cpu time    0.1698: real time    0.1698
     EDDAV:  cpu time    7.6570: real time    7.6614
       DOS:  cpu time    0.0002: real time    0.0002
    --------------------------------------------
      LOOP:  cpu time    8.0331: real time    8.0546

 eigenvalue-minimisations  :   600
 total energy-change (2. order) : 0.6228543E-05  (-0.9032785E-05)
 number of electron     384.0000000 magnetization 
 augmentation part      -49.4173338 magnetization 

 Free energy of the ion-electron system (eV)
  ---------------------------------------------------
  alpha Z        PSCENC =       310.04809462
  Ewald energy   TEWEN  =    -15411.79903696
  -Hartree energ DENC   =     -4574.68857000
  -exchange      EXHF   =         0.00000000
  -V(xc)+E(xc)   XCENC  =       447.04919785
  PAW double counting   =     11244.29642950   -10653.58681166
  entropy T*S    EENTRO =        -0.00000000
  eigenvalues    EBANDS =     -1859.67625695
  atomic energy  EATOM  =     20224.25915541
  Solvation  Ediel_sol  =         0.00000000
  ---------------------------------------------------
  free energy    TOTEN  =      -274.09779819 eV

  energy without entropy =     -274.09779819  energy(sigma->0) =     -274.09779819


--------------------------------------------------------------------------------------------------------




 average (electrostatic) potential at core
  the test charge radii are     0.9406  1.4837  0.9748
  (the norm of the test charge is              1.0000)
       1 -92.6778       2 -92.6778       3 -94.2230       4 -94.2230       5 -94.0906
       6 -94.7277       7 -94.1111       8 -94.0434       9 -93.5674      10 -93.5674
      11 -93.6644      12 -93.6645      13 -94.1618      14 -94.0169      15 -94.0141
      16 -94.1645      17 -93.9904      18 -93.9904      19 -93.9787      20 -93.9786
      21 -94.7276      22 -94.0906      23 -94.0434      24 -94.1110      25 -93.9987
      26 -93.9987      27 -94.0205      28 -94.0205      29 -94.0169      30 -94.1618
      31 -94.1644      32 -94.0141      33 -93.7026      34 -93.7026      35 -94.0666
      36 -94.1273      37 -92.5416      38 -92.5416      39 -94.0676      40 -94.6540
      41 -93.9818      42 -93.9818      43 -94.1273      44 -94.0666      45 -94.0824
      46 -94.0824      47 -94.6541      48 -94.0676      49 -41.9808      50 -41.5382
      51 -41.8883      52 -41.9120      53 -41.9808      54 -41.8093      55 -41.8883
      56 -42.2104      57 -27.8262      58 -28.1169      59 -28.7425      60 -28.7712
      61 -27.8262      62 -28.1168      63 -28.8971      64 -28.3772      65 -28.6614
      66 -28.6635      67 -28.8971      68 -28.3773      69 -28.6614      70 -28.6635
      71 -28.7425      72 -28.7712      73 -28.5158      74 -28.7528      75 -27.9704
      76 -28.7529      77 -27.9704      78 -28.8406      79 -28.5158      80 -28.8406
 
 
 
 E-fermi :   0.4220     XC(G=0):  -7.8729     alpha+bet : -7.9187


 k-point     1 :       0.0000    0.0000    0.0000
  band No.  band energies     occupation 
      1     -14.6450      2.00000
      2     -14.3823      2.00000
      3     -14.1662      2.00000
      4     -14.1417      2.00000
      5     -14.0819      2.00000
      6     -14.0583      2.00000
      7     -14.0418      2.00000
      8     -13.9202      2.00000
      9     -13.8706      2.00000
     10     -13.8332      2.00000
     11     -13.8056      2.00000
     12     -13.7734      2.00000
     13     -13.7452      2.00000
     14     -13.7313      2.00000
     15     -13.7207      2.00000
     16     -13.6811      2.00000
     17     -13.6772      2.00000
     18     -13.6614      2.00000
     19     -13.6464      2.00000
     20     -13.6004      2.00000
     21     -13.5959      2.00000
     22     -13.5826      2.00000
     23     -13.5798      2.00000
     24     -13.5537      2.00000
     25     -13.5451      2.00000
     26     -13.4985      2.00000
     27     -13.4909      2.00000
     28     -13.4578      2.00000
     29     -13.4525      2.00000
     30     -13.4451      2.00000
     31     -13.4119      2.00000
     32     -13.4075      2.00000
     33     -13.4018      2.00000
     34     -13.3798      2.00000
     35     -13.3581      2.00000
     36     -13.3429      2.00000
     37     -13.3211      2.00000
     38     -13.3026      2.00000
     39     -13.2864      2.00000
     40     -13.2768      2.00000
     41     -13.1722      2.00000
     42     -13.1186      2.00000
     43     -12.9588      2.00000
     44     -12.9297      2.00000
     45     -12.2859      2.00000
     46     -12.2631      2.00000
     47     -12.1483      2.00000
     48     -12.1434      2.00000
     49      -5.5967      2.00000
     50      -5.3082      2.00000
     51      -5.2581      2.00000
     52      -5.1483      2.00000
     53      -5.1214      2.00000
     54      -5.0924      2.00000
     55      -4.9926      2.00000
     56      -4.6689      2.00000
     57      -3.8647      2.00000
     58      -3.6784      2.00000
     59      -3.6772      2.00000
     60      -3.4809      2.00000
     61      -3.4217      2.00000
     62      -3.3905      2.00000
     63      -3.3902      2.00000
     64      -3.3656      2.00000
     65      -3.2693      2.00000
     66      -3.2487      2.00000
     67      -3.2278      2.00000
     68      -3.2276      2.00000
     69      -3.1786      2.00000
     70      -3.0645      2.00000
     71      -3.0415      2.00000
     72      -3.0100      2.00000
     73      -3.0049      2.00000
     74      -2.9708      2.00000
     75      -2.9569      2.00000
     76      -2.8967      2.00000
     77      -2.8225      2.00000
     78      -2.7596      2.00000
     79      -2.7408      2.00000
     80      -2.7338      2.00000
     81      -2.6553      2.00000
     82      -2.6205      2.00000
     83      -2.6146      2.00000
     84      -2.5934      2.00000
     85      -2.5659      2.00000
     86      -2.5529      2.00000
     87      -2.5017      2.00000
     88      -2.4548      2.00000
     89      -2.4128      2.00000
     90      -2.3910      2.00000
     91      -2.3670      2.00000
     92      -2.3504      2.00000
     93      -2.3224      2.00000
     94      -2.3141      2.00000
     95      -2.3060      2.00000
     96      -2.3042      2.00000
     97      -2.2539      2.00000
     98      -2.2211      2.00000
     99      -2.2175      2.00000
    100      -2.1934      2.00000
    101      -2.1635      2.00000
    102      -2.1442      2.00000
    103      -2.1206      2.00000
    104      -2.0645      2.00000
    105      -2.0190      2.00000
    106      -2.0032      2.00000
    107      -1.9692      2.00000
    108      -1.9539      2.00000
    109      -1.9310      2.00000
    110      -1.9108      2.00000
    111      -1.9023      2.00000
    112      -1.8896      2.00000
    113      -1.8567      2.00000
    114      -1.8242      2.00000
    115      -1.8224      2.00000
    116      -1.7924      2.00000
    117      -1.7765      2.00000
    118      -1.7206      2.00000
    119      -1.7026      2.00000
    120      -1.6861      2.00000
    121      -1.6760      2.00000
    122      -1.6751      2.00000
    123      -1.6473      2.00000
    124      -1.6420      2.00000
    125      -1.6107      2.00000
    126      -1.6070      2.00000
    127      -1.5811      2.00000
    128      -1.5579      2.00000
    129      -1.5511      2.00000
    130      -1.5283      2.00000
    131      -1.5199      2.00000
    132      -1.5133      2.00000
    133      -1.4902      2.00000
    134      -1.4637      2.00000
    135      -1.4474      2.00000
    136      -1.4401      2.00000
    137      -1.4319      2.00000
    138      -1.3914      2.00000
    139      -1.3907      2.00000
    140      -1.3808      2.00000
    141      -1.3506      2.00000
    142      -1.3497      2.00000
    143      -1.3332      2.00000
    144      -1.3320      2.00000
    145      -1.3076      2.00000
    146      -1.2977      2.00000
    147      -1.2806      2.00000
    148      -1.2677      2.00000
    149      -1.2540      2.00000
    150      -1.2432      2.00000
    151      -1.2275      2.00000
    152      -1.2098      2.00000
    153      -1.1960      2.00000
    154      -1.1809      2.00000
    155      -1.1789      2.00000
    156      -1.1584      2.00000
    157      -1.1490      2.00000
    158      -1.1188      2.00000
    159      -1.0960      2.00000
    160      -1.0821      2.00000
    161      -1.0813      2.00000
    162      -1.0754      2.00000
    163      -1.0598      2.00000
    164      -1.0557      2.00000
    165      -1.0140      2.00000
    166      -0.9934      2.00000
    167      -0.9809      2.00000
    168      -0.9737      2.00000
    169      -0.9465      2.00000
    170      -0.9319      2.00000
    171      -0.9207      2.00000
    172      -0.9062      2.00000
    173      -0.8804      2.00000
    174      -0.8618      2.00000
    175      -0.8319      2.00000
    176      -0.8024      2.00000
    177      -0.7953      2.00000
    178      -0.7608      2.00000
    179      -0.7540      2.00000
    180      -0.6716      2.00000
    181      -0.6687      2.00000
    182      -0.5986      2.00000
    183      -0.5960      2.00000
    184      -0.5228      2.00000
    185      -0.3604      2.00000
    186      -0.3560      2.00000
    187      -0.3399      2.00000
    188      -0.2751      2.00000
    189      -0.2406      2.00000
    190      -0.2258      2.00000
    191      -0.1611      2.00000
    192      -0.0644      2.00000
    193       2.4848      0.00000
    194       2.8045      0.00000
    195       2.8203      0.00000
    196       2.9376      0.00000
    197       3.1334      0.00000
    198       3.1471      0.00000
    199       3.2222      0.00000
    200       3.4305      0.00000
    201       5.6793      0.00000
    202       5.8149      0.00000
    203       5.9161      0.00000
    204       5.9632      0.00000
    205       6.0654      0.00000
    206       6.0769      0.00000
    207       6.1349      0.00000
    208       6.1863      0.00000
    209       6.2657      0.00000
    210       6.3700      0.00000
    211       6.4908      0.00000
    212       6.5360      0.00000
    213       6.6327      0.00000
    214       6.6419      0.00000
    215       6.6973      0.00000
    216       6.7441      0.00000
    217       6.8237      0.00000
    218       6.8383      0.00000
    219       6.9188      0.00000
    220       6.9717      0.00000
    221       6.9903      0.00000
    222       7.0513      0.00000
    223       7.1801      0.00000
    224       7.2366      0.00000
    225       7.2687      0.00000
    226       7.3658      0.00000
    227       7.4424      0.00000
    228       7.4624      0.00000
    229       7.5424      0.00000
    230       7.5573      0.00000
    231       7.6019      0.00000
    232       7.6963      0.00000
    233       7.7846      0.00000
    234       7.8046      0.00000
    235       7.8228      0.00000
    236       7.8766      0.00000
    237       7.8860      0.00000
    238       7.9050      0.00000
    239       7.9838      0.00000
    240       8.0083      0.00000


--------------------------------------------------------------------------------------------------------


 soft charge-density along one line, spin component           1
         0         1         2         3         4         5         6         7         8         9
 total charge-density along one line
 
 pseudopotential strength for first ion, spin component:           1
 47.402  -0.016  -0.003   0.019   0.003  -0.000   0.000   0.000
 -0.016   0.019  -0.000   0.000   0.000  -0.000   0.000   0.000
 -0.003  -0.000   9.108   0.000  -0.000   0.002  -0.000   0.000
  0.019   0.000   0.000   9.105   0.000  -0.000   0.002  -0.000
  0.003   0.000  -0.000   0.000   9.109   0.000  -0.000   0.002
 -0.000  -0.000   0.002  -0.000   0.000   0.035   0.000  -0.000
  0.000   0.000  -0.000   0.002  -0.000   0.000   0.035   0.000
  0.000   0.000   0.000  -0.000   0.002  -0.000   0.000   0.035
 total augmentation occupancy for first ion, spin component:           1
  1.911   0.427   0.009  -0.060  -0.010   0.011  -0.066  -0.012
  0.427   0.249  -0.054   0.333   0.057   0.013  -0.099  -0.023
  0.009  -0.054   1.759  -0.002   0.003  -0.398  -0.007   0.002
 -0.060   0.333  -0.002   1.797  -0.001  -0.007  -0.330  -0.010
 -0.010   0.057   0.003  -0.001   1.750   0.003  -0.010  -0.423
  0.011   0.013  -0.398  -0.007   0.003   0.101   0.003  -0.000
 -0.066  -0.099  -0.007  -0.330  -0.010   0.003   0.078   0.006
 -0.012  -0.023   0.002  -0.010  -0.423  -0.000   0.006   0.114


------------------------ aborting loop because EDIFF is reached ----------------------------------------


 


 total charge     
 
# of ion       s       p       d       tot
------------------------------------------
    1        1.589   3.591   0.000   5.180
    2        1.589   3.591   0.000   5.180
    3        1.599   3.535   0.000   5.134
    4        1.599   3.535   0.000   5.134
    5        1.598   3.544   0.000   5.142
    6        1.602   3.527   0.000   5.130
    7        1.598   3.539   0.000   5.137
    8        1.599   3.536   0.000   5.135
    9        1.597   3.539   0.000   5.136
   10        1.597   3.539   0.000   5.136
   11        1.594   3.555   0.000   5.149
   12        1.594   3.555   0.000   5.149
   13        1.597   3.549   0.000   5.145
   14        1.598   3.544   0.000   5.143
   15        1.599   3.543   0.000   5.142
   16        1.596   3.550   0.000   5.146
   17        1.597   3.544   0.000   5.140
   18        1.597   3.544   0.000   5.140
   19        1.595   3.548   0.000   5.143
   20        1.595   3.548   0.000   5.143
   21        1.602   3.527   0.000   5.130
   22        1.598   3.544   0.000   5.142
   23        1.599   3.536   0.000   5.135
   24        1.598   3.539   0.000   5.137
   25        1.596   3.561   0.000   5.156
   26        1.596   3.561   0.000   5.156
   27        1.596   3.546   0.000   5.142
   28        1.596   3.546   0.000   5.142
   29        1.598   3.544   0.000   5.143
   30        1.597   3.549   0.000   5.145
   31        1.596   3.550   0.000   5.146
   32        1.599   3.543   0.000   5.142
   33        1.599   3.539   0.000   5.139
   34        1.599   3.539   0.000   5.139
   35        1.596   3.552   0.000   5.148
   36        1.595   3.562   0.000   5.157
   37        1.590   3.591   0.000   5.182
   38        1.590   3.591   0.000   5.182
   39        1.599   3.537   0.000   5.136
   40        1.604   3.522   0.000   5.126
   41        1.600   3.540   0.000   5.140
   42        1.600   3.540   0.000   5.140
   43        1.595   3.562   0.000   5.157
   44        1.596   3.552   0.000   5.148
   45        1.596   3.557   0.000   5.153
   46        1.596   3.557   0.000   5.153
   47        1.604   3.522   0.000   5.126
   48        1.599   3.537   0.000   5.136
   49        0.975   1.144   0.373   2.493
   50        0.966   1.106   0.359   2.432
   51        0.971   1.148   0.382   2.501
   52        0.961   1.116   0.369   2.446
   53        0.975   1.144   0.373   2.493
   54        0.969   1.133   0.374   2.476
   55        0.971   1.148   0.382   2.501
   56        0.974   1.145   0.372   2.491
   57        0.071   0.129   0.000   0.200
   58        0.071   0.133   0.000   0.204
   59        0.056   0.102   0.000   0.158
   60        0.058   0.105   0.000   0.162
   61        0.071   0.129   0.000   0.200
   62        0.071   0.133   0.000   0.204
   63        0.056   0.101   0.000   0.157
   64        0.064   0.115   0.000   0.179
   65        0.061   0.110   0.000   0.171
   66        0.061   0.112   0.000   0.173
   67        0.056   0.101   0.000   0.157
   68        0.064   0.115   0.000   0.179
   69        0.061   0.110   0.000   0.171
   70        0.061   0.112   0.000   0.173
   71        0.056   0.102   0.000   0.158
   72        0.058   0.105   0.000   0.162
   73        0.062   0.110   0.000   0.172
   74        0.060   0.107   0.000   0.167
   75        0.068   0.126   0.000   0.195
   76        0.060   0.107   0.000   0.167
   77        0.068   0.126   0.000   0.195
   78        0.060   0.107   0.000   0.168
   79        0.062   0.110   0.000   0.172
   80        0.060   0.107   0.000   0.168
--------------------------------------------------
tot         85.916 182.104   2.985 271.005
 
    CHARGE:  cpu time    0.3281: real time    0.3282
    FORLOC:  cpu time    0.0982: real time    0.0982
    FORNL :  cpu time    1.5368: real time    1.5389
    STRESS:  cpu time    7.1938: real time    7.2022
    FORCOR:  cpu time    0.2521: real time    0.2523
    FORHAR:  cpu time    0.1515: real time    0.1516
    MIXING:  cpu time    0.0038: real time    0.0038
    OFIELD:  cpu time    0.0000: real time    0.0000

  FORCE on cell =-STRESS in cart. coord.  units (eV):
  Direction    XX          YY          ZZ          XY          YZ          ZX
  --------------------------------------------------------------------------------------
  Alpha Z   310.04809   310.04809   310.04809
  Ewald   -5105.55013 -5450.76504 -4855.57350    -0.00000    -0.00000    23.19525
  Hartree  1544.94290  1337.25582  1692.49870    -0.00000     0.00000     8.31283
  E(xc)   -1403.66909 -1403.57728 -1405.04437     0.00000     0.00000     0.16475
  Local   -4339.73063 -3802.01663 -4719.77903    -0.00000     0.00000   -33.04170
  n-local  4204.03545  4200.70839  4209.57737    -0.00000     0.00000     0.18233
  augment  -980.06583  -981.09934  -979.49617    -0.00000    -0.00000    -0.09041
  Kinetic  5770.87291  5792.49369  5748.39790     0.00001     0.00000     1.39560
  Fock        0.00000     0.00000     0.00000     0.00000     0.00000     0.00000
  -------------------------------------------------------------------------------------
  Total       0.88369     3.04771     0.62898     0.00000     0.00000     0.11865
  in kB       0.76075     2.62370     0.54147     0.00000     0.00000     0.10215
  external pressure =        1.31 kB  Pullay stress =        0.00 kB


 VOLUME and BASIS-vectors are now :
 -----------------------------------------------------------------------------
  energy-cutoff  :      520.00
  volume of cell :     1861.11
      direct lattice vectors                 reciprocal lattice vectors
    13.459017910  0.000000000 -0.273085008     0.074898101  0.000000000  0.029495859
     0.000000000 11.456071877  0.000000000     0.000000000  0.087289955  0.000000000
    -4.791777054  0.000000000 12.167640179     0.001680979  0.000000000  0.082847197

  length of vectors
    13.461788088 11.456071877 13.077178399     0.080496777  0.087289955  0.082864248


 FORCES acting on ions
    electron-ion (+dipol)            ewald-force                    non-local-force                 convergence-correction
 -----------------------------------------------------------------------------------------------
   0.142E+02 0.721E+01 0.548E+02   -.144E+02 -.700E+01 -.562E+02   0.155E+00 -.216E+00 0.142E+01   -.146E-02 0.234E-02 -.325E-01
   -.142E+02 0.721E+01 -.548E+02   0.144E+02 -.700E+01 0.562E+02   -.155E+00 -.216E+00 -.142E+01   0.146E-02 0.234E-02 0.325E-01
   0.218E+02 -.725E+02 0.142E+01   -.229E+02 0.746E+02 -.301E+01   0.106E+01 -.212E+01 0.160E+01   -.622E-02 0.120E-01 -.181E-01
   -.218E+02 -.725E+02 -.142E+01   0.229E+02 0.746E+02 0.301E+01   -.106E+01 -.212E+01 -.160E+01   0.622E-02 0.120E-01 0.181E-01
   -.406E+02 -.418E+02 0.354E+01   0.414E+02 0.436E+02 -.272E+01   -.807E+00 -.183E+01 -.811E+00   0.122E-01 0.829E-02 0.381E-02
   -.325E+02 -.387E+02 0.274E+02   0.336E+02 0.396E+02 -.288E+02   -.997E+00 -.926E+00 0.145E+01   -.579E-02 -.831E-02 -.103E-01
   0.224E+02 0.764E+02 -.452E+01   -.235E+02 -.785E+02 0.370E+01   0.113E+01 0.212E+01 0.830E+00   -.495E-02 0.191E-02 -.851E-02
   -.252E+02 0.515E+02 0.162E+02   0.261E+02 -.538E+02 -.150E+02   -.842E+00 0.231E+01 -.123E+01   0.731E-02 -.317E-02 0.433E-02
   -.184E+02 -.451E+02 -.261E+01   0.191E+02 0.469E+02 0.350E+01   -.714E+00 -.177E+01 -.880E+00   0.235E-01 0.124E-01 -.386E-02
   0.184E+02 -.451E+02 0.261E+01   -.191E+02 0.469E+02 -.350E+01   0.714E+00 -.177E+01 0.880E+00   -.235E-01 0.124E-01 0.386E-02
   0.217E+02 0.264E+02 -.686E+01   -.222E+02 -.275E+02 0.662E+01   0.493E+00 0.109E+01 0.227E+00   0.432E-02 0.194E-01 0.138E-01
   -.217E+02 0.264E+02 0.686E+01   0.222E+02 -.275E+02 -.662E+01   -.493E+00 0.109E+01 -.227E+00   -.432E-02 0.194E-01 -.138E-01
   -.265E+02 -.402E+02 0.404E+01   0.277E+02 0.418E+02 -.358E+01   -.119E+01 -.160E+01 -.457E+00   -.565E-02 -.141E-01 -.480E-03
   0.194E+02 -.426E+02 -.148E+02   -.204E+02 0.446E+02 0.140E+02   0.990E+00 -.198E+01 0.789E+00   0.139E-02 -.107E-01 0.387E-03
   0.240E+02 0.588E+02 0.107E+01   -.251E+02 -.611E+02 -.166E+01   0.107E+01 0.230E+01 0.602E+00   -.183E-02 0.132E-01 -.120E-01
   -.154E+02 0.471E+02 -.247E+01   0.161E+02 -.486E+02 0.333E+01   -.781E+00 0.151E+01 -.843E+00   -.917E-02 0.780E-02 -.129E-01
   -.249E+02 -.491E+02 0.729E+01   0.259E+02 0.507E+02 -.641E+01   -.990E+00 -.156E+01 -.882E+00   -.885E-02 -.795E-02 -.220E-02
   0.249E+02 -.491E+02 -.729E+01   -.259E+02 0.507E+02 0.641E+01   0.990E+00 -.156E+01 0.882E+00   0.885E-02 -.795E-02 0.220E-02
   0.185E+02 0.360E+02 -.710E+01   -.193E+02 -.374E+02 0.647E+01   0.791E+00 0.146E+01 0.630E+00   0.864E-02 0.140E-01 0.727E-02
   -.185E+02 0.360E+02 0.710E+01   0.193E+02 -.374E+02 -.647E+01   -.791E+00 0.146E+01 -.630E+00   -.864E-02 0.140E-01 -.727E-02
   0.325E+02 -.387E+02 -.274E+02   -.336E+02 0.396E+02 0.288E+02   0.997E+00 -.926E+00 -.145E+01   0.579E-02 -.831E-02 0.103E-01
   0.406E+02 -.418E+02 -.354E+01   -.414E+02 0.436E+02 0.272E+01   0.807E+00 -.183E+01 0.811E+00   -.122E-01 0.829E-02 -.381E-02
   0.252E+02 0.515E+02 -.162E+02   -.261E+02 -.538E+02 0.150E+02   0.842E+00 0.231E+01 0.123E+01   -.731E-02 -.317E-02 -.433E-02
   -.224E+02 0.764E+02 0.452E+01   0.235E+02 -.785E+02 -.370E+01   -.113E+01 0.212E+01 -.830E+00   0.495E-02 0.191E-02 0.851E-02
   -.252E+02 -.368E+02 0.550E+01   0.255E+02 0.383E+02 -.496E+01   -.297E+00 -.149E+01 -.530E+00   -.575E-02 -.267E-01 -.125E-01
   0.252E+02 -.368E+02 -.550E+01   -.255E+02 0.383E+02 0.496E+01   0.297E+00 -.149E+01 0.530E+00   0.575E-02 -.267E-01 0.125E-01
   0.246E+02 0.291E+02 -.743E+01   -.254E+02 -.303E+02 0.647E+01   0.858E+00 0.119E+01 0.950E+00   0.122E-01 0.593E-02 0.501E-02
   -.246E+02 0.291E+02 0.743E+01   0.254E+02 -.303E+02 -.647E+01   -.858E+00 0.119E+01 -.950E+00   -.122E-01 0.593E-02 -.501E-02
   -.194E+02 -.426E+02 0.148E+02   0.204E+02 0.446E+02 -.140E+02   -.990E+00 -.198E+01 -.789E+00   -.139E-02 -.107E-01 -.387E-03
   0.265E+02 -.402E+02 -.404E+01   -.277E+02 0.418E+02 0.358E+01   0.119E+01 -.160E+01 0.457E+00   0.565E-02 -.141E-01 0.480E-03
   0.154E+02 0.471E+02 0.247E+01   -.161E+02 -.486E+02 -.333E+01   0.781E+00 0.151E+01 0.843E+00   0.917E-02 0.780E-02 0.129E-01
   -.240E+02 0.588E+02 -.107E+01   0.251E+02 -.611E+02 0.166E+01   -.107E+01 0.230E+01 -.602E+00   0.183E-02 0.132E-01 0.120E-01
   -.533E+02 -.123E+02 0.776E+00   0.559E+02 0.123E+02 -.124E+01   -.262E+01 -.176E-01 0.461E+00   0.512E-02 0.234E-01 0.271E-02
   0.533E+02 -.123E+02 -.777E+00   -.559E+02 0.123E+02 0.124E+01   0.262E+01 -.176E-01 -.461E+00   -.512E-02 0.234E-01 -.271E-02
   -.442E+02 0.748E+01 -.181E+02   0.458E+02 -.772E+01 0.174E+02   -.152E+01 0.236E+00 0.712E+00   0.471E-02 0.204E-02 -.148E-01
   0.383E+02 0.739E+01 0.131E+02   -.398E+02 -.708E+01 -.128E+02   0.145E+01 -.300E+00 -.335E+00   0.511E-02 -.112E-01 -.126E-01
   0.870E+01 -.307E+02 -.572E+02   -.875E+01 0.307E+02 0.587E+02   0.288E-01 -.135E-01 -.155E+01   0.110E-01 0.153E-01 0.171E-01
   -.870E+01 -.307E+02 0.572E+02   0.875E+01 0.307E+02 -.587E+02   -.288E-01 -.135E-01 0.155E+01   -.110E-01 0.153E-01 -.171E-01
   -.562E+02 0.542E+01 -.171E+02   0.588E+02 -.505E+01 0.164E+02   -.264E+01 -.367E+00 0.745E+00   0.631E-02 -.774E-02 -.495E-02
   0.158E+02 0.636E+02 -.213E+02   -.166E+02 -.652E+02 0.227E+02   0.775E+00 0.159E+01 -.138E+01   0.135E-03 -.854E-02 0.367E-02
   -.545E+02 -.486E+01 -.142E+02   0.572E+02 0.471E+01 0.138E+02   -.273E+01 0.149E+00 0.301E+00   0.322E-02 0.106E-02 0.620E-02
   0.545E+02 -.486E+01 0.142E+02   -.572E+02 0.471E+01 -.138E+02   0.273E+01 0.149E+00 -.301E+00   -.322E-02 0.106E-02 -.620E-02
   -.383E+02 0.739E+01 -.131E+02   0.398E+02 -.708E+01 0.128E+02   -.145E+01 -.300E+00 0.335E+00   -.511E-02 -.112E-01 0.126E-01
   0.442E+02 0.748E+01 0.181E+02   -.458E+02 -.772E+01 -.174E+02   0.152E+01 0.236E+00 -.712E+00   -.471E-02 0.204E-02 0.148E-01
   -.539E+02 -.838E+01 -.243E+02   0.557E+02 0.836E+01 0.239E+02   -.178E+01 0.260E-01 0.412E+00   0.318E-02 -.475E-02 0.558E-02
   0.539E+02 -.838E+01 0.243E+02   -.557E+02 0.836E+01 -.239E+02   0.178E+01 0.260E-01 -.412E+00   -.318E-02 -.475E-02 -.558E-02
   -.158E+02 0.636E+02 0.213E+02   0.166E+02 -.652E+02 -.227E+02   -.775E+00 0.159E+01 0.138E+01   -.135E-03 -.854E-02 -.367E-02
   0.562E+02 0.542E+01 0.171E+02   -.588E+02 -.505E+01 -.164E+02   0.264E+01 -.367E+00 -.745E+00   -.631E-02 -.774E-02 0.495E-02
   -.774E+01 0.968E+01 0.131E+01   0.935E+01 -.106E+02 -.122E+01   -.161E+01 0.937E+00 -.962E-01   -.625E-03 -.117E-03 0.581E-03
   -.492E-06 -.220E+01 -.935E-06   -.359E-05 0.337E+01 -.689E-05   0.000E+00 -.117E+01 0.000E+00   -.103E-09 0.594E-04 -.412E-08
   -.289E+01 0.325E+01 -.370E+01   0.256E+01 -.341E+01 0.276E+01   0.326E+00 0.169E+00 0.947E+00   -.486E-03 -.175E-02 0.116E-02
   0.641E-06 -.264E+01 0.981E-06   0.469E-05 0.304E+01 0.720E-05   0.000E+00 -.412E+00 0.000E+00   -.196E-08 0.216E-02 0.215E-08
   0.774E+01 0.968E+01 -.131E+01   -.935E+01 -.106E+02 0.122E+01   0.161E+01 0.937E+00 0.962E-01   0.625E-03 -.117E-03 -.581E-03
   -.496E-06 0.276E+01 -.894E-06   -.363E-05 -.257E+01 -.657E-05   0.000E+00 -.186E+00 0.000E+00   0.476E-08 0.293E-03 -.468E-08
   0.289E+01 0.325E+01 0.370E+01   -.256E+01 -.341E+01 -.276E+01   -.326E+00 0.169E+00 -.947E+00   0.486E-03 -.175E-02 -.116E-02
   0.218E-07 -.125E+02 0.146E-05   0.125E-06 0.139E+02 0.109E-04   0.000E+00 -.136E+01 0.000E+00   0.321E-08 -.206E-02 -.733E-08
   0.473E+00 -.877E+01 0.276E+01   -.965E-01 0.787E+01 -.343E+01   -.377E+00 0.898E+00 0.677E+00   0.475E-04 0.434E-03 -.500E-03
   0.320E+01 0.467E+01 -.366E+00   -.272E+01 -.349E+01 0.572E+00   -.478E+00 -.119E+01 -.207E+00   -.195E-03 0.226E-03 0.180E-04
   -.311E+01 -.406E+01 -.470E+01   0.297E+01 0.396E+01 0.462E+01   0.135E+00 0.949E-01 0.776E-01   0.354E-03 -.151E-03 0.291E-03
   -.835E+00 0.104E+02 -.121E+01   0.784E+00 -.975E+01 0.123E+01   0.510E-01 -.686E+00 -.689E-02   0.130E-03 -.598E-03 -.668E-03
   -.473E+00 -.877E+01 -.276E+01   0.965E-01 0.787E+01 0.343E+01   0.377E+00 0.898E+00 -.677E+00   -.475E-04 0.434E-03 0.500E-03
   -.320E+01 0.467E+01 0.366E+00   0.272E+01 -.349E+01 -.572E+00   0.478E+00 -.119E+01 0.207E+00   0.195E-03 0.226E-03 -.180E-04
   0.173E+01 -.540E+01 -.347E+01   -.140E+01 0.505E+01 0.303E+01   -.333E+00 0.357E+00 0.438E+00   0.445E-03 -.381E-03 -.227E-03
   -.588E+00 -.682E-01 -.176E-01   0.601E-01 -.739E+00 -.286E+00   0.528E+00 0.806E+00 0.304E+00   -.331E-03 0.405E-03 -.117E-03
   -.132E+01 -.806E+01 0.837E+00   0.138E+01 0.741E+01 -.755E+00   -.571E-01 0.660E+00 -.812E-01   0.370E-03 -.556E-03 -.116E-03
   0.371E+00 0.813E+01 -.670E+00   -.399E+00 -.735E+01 0.657E+00   0.266E-01 -.781E+00 0.135E-01   0.455E-03 0.565E-03 -.210E-05
   -.173E+01 -.540E+01 0.347E+01   0.140E+01 0.505E+01 -.303E+01   0.333E+00 0.357E+00 -.438E+00   -.445E-03 -.381E-03 0.227E-03
   0.588E+00 -.682E-01 0.176E-01   -.601E-01 -.739E+00 0.286E+00   -.528E+00 0.806E+00 -.304E+00   0.331E-03 0.405E-03 0.117E-03
   0.132E+01 -.806E+01 -.837E+00   -.138E+01 0.741E+01 0.755E+00   0.571E-01 0.660E+00 0.812E-01   -.370E-03 -.556E-03 0.116E-03
   -.371E+00 0.813E+01 0.670E+00   0.399E+00 -.735E+01 -.657E+00   -.266E-01 -.781E+00 -.135E-01   -.455E-03 0.565E-03 0.210E-05
   0.311E+01 -.406E+01 0.470E+01   -.297E+01 0.396E+01 -.462E+01   -.135E+00 0.949E-01 -.776E-01   -.354E-03 -.151E-03 -.291E-03
   0.835E+00 0.104E+02 0.121E+01   -.784E+00 -.975E+01 -.123E+01   -.510E-01 -.686E+00 0.689E-02   -.130E-03 -.598E-03 0.668E-03
   0.464E+01 0.445E+01 0.439E+01   -.496E+01 -.336E+01 -.453E+01   0.316E+00 -.109E+01 0.140E+00   0.472E-03 -.260E-03 -.275E-03
   -.274E+01 0.626E+00 -.456E+00   0.265E+01 -.676E+00 0.345E+00   0.846E-01 0.495E-01 0.110E+00   0.224E-04 0.489E-04 0.297E-03
   -.548E+01 -.175E+01 -.421E+00   0.446E+01 0.180E+01 0.780E+00   0.101E+01 -.535E-01 -.359E+00   0.707E-03 0.834E-03 0.148E-03
   0.274E+01 0.626E+00 0.456E+00   -.265E+01 -.676E+00 -.345E+00   -.846E-01 0.495E-01 -.110E+00   -.224E-04 0.489E-04 -.297E-03
   0.548E+01 -.175E+01 0.421E+00   -.446E+01 0.180E+01 -.780E+00   -.101E+01 -.535E-01 0.359E+00   -.707E-03 0.834E-03 -.148E-03
   0.906E+00 0.196E+01 0.350E+00   -.777E+00 -.228E+01 -.117E-01   -.129E+00 0.313E+00 -.337E+00   0.390E-03 -.485E-03 0.182E-03
   -.464E+01 0.445E+01 -.439E+01   0.496E+01 -.336E+01 0.453E+01   -.316E+00 -.109E+01 -.140E+00   -.472E-03 -.260E-03 0.275E-03
   -.906E+00 0.196E+01 -.350E+00   0.777E+00 -.228E+01 0.117E-01   0.129E+00 0.313E+00 0.337E+00   -.390E-03 -.485E-03 -.182E-03
 -----------------------------------------------------------------------------------------------
   0.274E-03 0.248E+01 -.697E-03   -.444E-14 -.724E-13 0.128E-13   -.167E-14 -.255E+01 0.167E-15   0.256E-08 0.685E-01 -.198E-07
 
 
 POSITION                                       TOTAL-FORCE (eV/Angst)
 -----------------------------------------------------------------------------------
      1.01230      1.91734      1.90754        -0.004639     -0.001697      0.001671
      7.65494      1.91734      9.98701         0.004639     -0.001697     -0.001671
      7.77223      9.34117     10.18588        -0.004525      0.004464     -0.003191
      0.89502      9.34117      1.70867         0.004525      0.004464      0.003191
      4.19612      7.45967      1.64566         0.000820      0.004861      0.004686
     -2.65574      7.54776     10.69831         0.000390      0.001990     -0.001212
     -2.33499      4.07514     10.44983         0.000790      0.001607      0.002278
      4.22691      3.97362      1.60198         0.000108      0.003400     -0.002884
     -1.49134      1.72242      7.74442        -0.001662     -0.003204     -0.000355
     10.15858      1.72242      4.15014         0.001662     -0.003204      0.000355
     10.07862      9.61471      4.15812         0.000155     -0.001166     -0.001176
     -1.41138      9.61471      7.73643        -0.000155     -0.001166      0.001176
      2.05174      7.46622      7.58732        -0.001313     -0.002725     -0.001121
     -0.04131      7.40090      4.47184         0.002485     -0.005039      0.003554
     -0.08924      3.92605      4.63657        -0.000667     -0.000394      0.001721
      1.88052      4.01675      7.76957         0.000224     -0.000054      0.001533
      7.68059      1.76004      1.49650         0.002613      0.001321      0.000481
      0.98665      1.76004     10.39806        -0.002613      0.001321     -0.000481
      1.04714      9.71579     10.39163         0.002299      0.005653      0.004403
      7.62010      9.71579      1.50292        -0.002299      0.005653     -0.004403
     11.32298      7.54776      1.19624        -0.000390      0.001990      0.001212
      4.47112      7.45967     10.24889        -0.000820      0.004861     -0.004686
      4.44033      3.97362     10.29257        -0.000108      0.003400      0.002884
     11.00224      4.07514      1.44473        -0.000790      0.001607     -0.002278
      5.08119      1.81181      7.57725        -0.003031     -0.004109     -0.004080
      3.58605      1.81181      4.31730         0.003031     -0.004109      0.004080
      3.37742      9.75880      4.19759        -0.000230      0.001986      0.001260
      5.28982      9.75880      7.69697         0.000230      0.001986     -0.001260
      8.70856      7.40090      7.42272        -0.002485     -0.005039     -0.003554
      6.61551      7.46622      4.30724         0.001313     -0.002725      0.001121
      6.78672      4.01675      4.12499        -0.000224     -0.000054     -0.001533
      8.75648      3.92605      7.25799         0.000667     -0.000394     -0.001721
     -0.33370     11.32387      4.64979         0.000670     -0.003351     -0.000325
      9.00094     11.32387      7.24477        -0.000670     -0.003351      0.000325
      2.98627      5.62370      4.51209         0.000664      0.000289     -0.000889
     -1.12548      5.88808      7.61624         0.005665     -0.000505     -0.000562
     -2.53842     11.32863     10.68869        -0.001661      0.000029      0.002311
     11.20566     11.32863      1.20587         0.001661      0.000029     -0.002311
      0.60196      5.98109     10.66415        -0.001350     -0.000258      0.000421
      1.11905      5.82324      1.32495        -0.000282     -0.001137      0.003265
      6.45369     11.37237      4.59104        -0.003078      0.000208      0.000779
      2.21355     11.37237      7.30352         0.003078      0.000208     -0.000779
      9.79272      5.88808      4.27832        -0.005665     -0.000505      0.000562
      5.68097      5.62370      7.38247        -0.000664      0.000289      0.000889
      4.01473      0.03984     10.53405        -0.002723      0.001018     -0.000428
      4.65251      0.03984      1.36051         0.002723      0.001018      0.000428
      7.54819      5.82324     10.56960         0.000282     -0.001137     -0.003265
      8.06528      5.98109      1.23041         0.001350     -0.000258     -0.000421
      3.41225      5.68849     -0.00904         0.000230     -0.006585     -0.001764
     -2.39589      0.00530      6.08382         0.000000     -0.001774      0.000000
      0.95319      5.70843      6.07153        -0.005390      0.007061      0.003811
      6.72951      0.04210     -0.13654         0.000000     -0.007079      0.000000
      5.25500      5.68849     11.90360        -0.000230     -0.006585      0.001764
      4.33362     11.40061      5.94728         0.000000      0.005187      0.000000
      7.71406      5.70843      5.82303         0.005390      0.007061     -0.003811
      0.00000      7.78707      0.00000         0.000000     -0.007836      0.000000
     12.36375      1.39878      2.47998         0.000168     -0.001372      0.004868
     -3.43250      9.87121      9.15623        -0.001188     -0.002909     -0.000577
      2.11055      7.61689      3.14808        -0.001926     -0.000691      0.000739
     -0.20139      4.13112      9.15631         0.000882      0.006576      0.004508
     -3.69651      1.39878      9.41457        -0.000168     -0.001372     -0.004868
     12.09974      9.87121      2.73832         0.001188     -0.002909      0.000577
     -0.00921      7.76269      8.86727         0.000019      0.002009     -0.000677
      1.99523      3.48350      3.28176        -0.000224     -0.001065      0.000103
      5.72351      1.65046      3.02274         0.001681      0.001070      0.000838
      3.11698      9.80610      8.97897        -0.000330      0.001386      0.000696
      8.67645      7.76269      3.02728        -0.000019      0.002009      0.000677
      6.67201      3.48350      8.61280         0.000224     -0.001065     -0.000103
      2.94373      1.65046      8.87182        -0.001681      0.001070     -0.000838
      5.55026      9.80610      2.91558         0.000330      0.001386     -0.000696
      6.55669      7.61689      8.74647         0.001926     -0.000691     -0.000739
      8.86863      4.13112      2.73824        -0.000882      0.006576     -0.004508
      2.45169      0.29861      2.63181         0.000460      0.001534      0.001381
      5.20638      5.70074      3.12527        -0.001040     -0.000526     -0.000079
     -0.67023      0.01337      9.35416         0.000688     -0.001477      0.000488
      3.46086      5.70074      8.76929         0.001040     -0.000526      0.000079
      9.33747      0.01337      2.54039        -0.000688     -0.001477     -0.000488
     12.04639      5.57535      3.16633        -0.000074     -0.002450      0.001501
      6.21555      0.29861      9.26274        -0.000460      0.001534     -0.001381
     -3.37915      5.57535      8.72822         0.000074     -0.002450     -0.001501
 -----------------------------------------------------------------------------------
    total drift:                                0.000274      0.000897     -0.000697


--------------------------------------------------------------------------------------------------------



  FREE ENERGIE OF THE ION-ELECTRON SYSTEM (eV)
  ---------------------------------------------------
  free  energy   TOTEN  =      -274.09779819 eV

  energy  without entropy=     -274.09779819  energy(sigma->0) =     -274.09779819
 
 d Force = 0.1609118E-03[ 0.472E-04, 0.275E-03]  d Energy = 0.1801332E-03-0.192E-04
 d Force =-0.2381008E+00[-0.241E+00,-0.235E+00]  d Ewald  =-0.2381014E+00 0.588E-06


--------------------------------------------------------------------------------------------------------


    POTLOK:  cpu time    0.3499: real time    0.3500


--------------------------------------------------------------------------------------------------------




--------------------------------------------------------------------------------------------------------


    WAVPRE:  cpu time    0.1044: real time    0.1074
    FEWALD:  cpu time    0.0085: real time    0.0085
    ORTHCH:  cpu time    0.9612: real time    0.9620
     LOOP+:  cpu time   31.4653: real time   31.5610


--------------------------------------- Iteration     14(   1)  ---------------------------------------


    POTLOK:  cpu time    0.2115: real time    0.2250
    SETDIJ:  cpu time    0.1659: real time    0.1659
     EDDAV:  cpu time    6.0237: real time    6.1326
       DOS:  cpu time    0.0003: real time    0.0003
    CHARGE:  cpu time    0.2239: real time    0.2240
    MIXING:  cpu time    0.0042: real time    0.0042
    --------------------------------------------
      LOOP:  cpu time    6.6295: real time    6.7520

 eigenvalue-minimisations  :   480
 total energy-change (2. order) :-0.1947247E-04  (-0.1524583E-02)
 number of electron     384.0000000 magnetization 
 augmentation part      -49.4175198 magnetization 

 Broyden mixing:
  rms(total) = 0.26056E-02    rms(broyden)= 0.26054E-02
  rms(prec ) = 0.29796E-02
  weight for this iteration     100.00

 Free energy of the ion-electron system (eV)
  ---------------------------------------------------
  alpha Z        PSCENC =       310.04809462
  Ewald energy   TEWEN  =    -15411.64307538
  -Hartree energ DENC   =     -4574.81356790
  -exchange      EXHF   =         0.00000000
  -V(xc)+E(xc)   XCENC  =       447.05131503
  PAW double counting   =     11244.29357530   -10653.58383166
  entropy T*S    EENTRO =        -0.00000000
  eigenvalues    EBANDS =     -1859.70948931
  atomic energy  EATOM  =     20224.25915541
  Solvation  Ediel_sol  =         0.00000000
  ---------------------------------------------------
  free energy    TOTEN  =      -274.09782389 eV

  energy without entropy =     -274.09782389  energy(sigma->0) =     -274.09782389


--------------------------------------------------------------------------------------------------------




--------------------------------------- Iteration     14(   2)  ---------------------------------------


    POTLOK:  cpu time    0.1307: real time    0.1354
    SETDIJ:  cpu time    0.1571: real time    0.1571
     EDDAV:  cpu time    5.8164: real time    5.8216
       DOS:  cpu time    0.0002: real time    0.0002
    CHARGE:  cpu time    0.2234: real time    0.2236
    MIXING:  cpu time    0.0047: real time    0.0047
    --------------------------------------------
      LOOP:  cpu time    6.3325: real time    6.3425

 eigenvalue-minimisations  :   560
 total energy-change (2. order) :-0.6162734E-04  (-0.6707393E-04)
 number of electron     384.0000000 magnetization 
 augmentation part      -49.4175094 magnetization 

 Broyden mixing:
  rms(total) = 0.10987E-02    rms(broyden)= 0.10979E-02
  rms(prec ) = 0.13930E-02
  weight for this iteration     100.00

 eigenvalues of (default mixing * dielectric matrix)
  average eigenvalue GAMMA=   0.9727
  0.9727

 Free energy of the ion-electron system (eV)
  ---------------------------------------------------
  alpha Z        PSCENC =       310.04809462
  Ewald energy   TEWEN  =    -15411.64307538
  -Hartree energ DENC   =     -4574.81336860
  -exchange      EXHF   =         0.00000000
  -V(xc)+E(xc)   XCENC  =       447.05120159
  PAW double counting   =     11244.30405406   -10653.59439270
  entropy T*S    EENTRO =        -0.00000000
  eigenvalues    EBANDS =     -1859.70955450
  atomic energy  EATOM  =     20224.25915541
  Solvation  Ediel_sol  =         0.00000000
  ---------------------------------------------------
  free energy    TOTEN  =      -274.09788552 eV

  energy without entropy =     -274.09788552  energy(sigma->0) =     -274.09788552


--------------------------------------------------------------------------------------------------------




--------------------------------------- Iteration     14(   3)  ---------------------------------------


    POTLOK:  cpu time    0.1308: real time    0.1352
    SETDIJ:  cpu time    0.1576: real time    0.1577
     EDDAV:  cpu time    4.5075: real time    4.5103
       DOS:  cpu time    0.0003: real time    0.0003
    --------------------------------------------
      LOOP:  cpu time    4.7961: real time    4.8035

 eigenvalue-minimisations  :   400
 total energy-change (2. order) : 0.8345087E-06  (-0.1035296E-05)
 number of electron     384.0000000 magnetization 
 augmentation part      -49.4175094 magnetization 

 Free energy of the ion-electron system (eV)
  ---------------------------------------------------
  alpha Z        PSCENC =       310.04809462
  Ewald energy   TEWEN  =    -15411.64307538
  -Hartree energ DENC   =     -4574.81398949
  -exchange      EXHF   =         0.00000000
  -V(xc)+E(xc)   XCENC  =       447.05110068
  PAW double counting   =     11244.31105269   -10653.60147696
  entropy T*S    EENTRO =        -0.00000000
  eigenvalues    EBANDS =     -1859.70874625
  atomic energy  EATOM  =     20224.25915541
  Solvation  Ediel_sol  =         0.00000000
  ---------------------------------------------------
  free energy    TOTEN  =      -274.09788468 eV

  energy without entropy =     -274.09788468  energy(sigma->0) =     -274.09788468


--------------------------------------------------------------------------------------------------------




 average (electrostatic) potential at core
  the test charge radii are     0.9406  1.4837  0.9748
  (the norm of the test charge is              1.0000)
       1 -92.6786       2 -92.6787       3 -94.2210       4 -94.2210       5 -94.0895
       6 -94.7271       7 -94.1114       8 -94.0435       9 -93.5678      10 -93.5678
      11 -93.6641      12 -93.6642      13 -94.1615      14 -94.0177      15 -94.0138
      16 -94.1641      17 -93.9905      18 -93.9905      19 -93.9794      20 -93.9794
      21 -94.7270      22 -94.0895      23 -94.0435      24 -94.1114      25 -93.9990
      26 -93.9990      27 -94.0202      28 -94.0202      29 -94.0177      30 -94.1615
      31 -94.1641      32 -94.0138      33 -93.7022      34 -93.7022      35 -94.0660
      36 -94.1289      37 -92.5413      38 -92.5413      39 -94.0673      40 -94.6542
      41 -93.9834      42 -93.9834      43 -94.1288      44 -94.0660      45 -94.0837
      46 -94.0836      47 -94.6543      48 -94.0673      49 -41.9798      50 -41.5381
      51 -41.8888      52 -41.9132      53 -41.9798      54 -41.8110      55 -41.8888
      56 -42.2087      57 -27.8254      58 -28.1155      59 -28.7421      60 -28.7707
      61 -27.8255      62 -28.1155      63 -28.8960      64 -28.3764      65 -28.6617
      66 -28.6637      67 -28.8959      68 -28.3765      69 -28.6617      70 -28.6637
      71 -28.7421      72 -28.7707      73 -28.5156      74 -28.7530      75 -27.9707
      76 -28.7530      77 -27.9707      78 -28.8418      79 -28.5156      80 -28.8418
 
 
 
 E-fermi :   0.4222     XC(G=0):  -7.8729     alpha+bet : -7.9187


 k-point     1 :       0.0000    0.0000    0.0000
  band No.  band energies     occupation 
      1     -14.6446      2.00000
      2     -14.3819      2.00000
      3     -14.1661      2.00000
      4     -14.1420      2.00000
      5     -14.0817      2.00000
      6     -14.0585      2.00000
      7     -14.0425      2.00000
      8     -13.9206      2.00000
      9     -13.8705      2.00000
     10     -13.8336      2.00000
     11     -13.8058      2.00000
     12     -13.7729      2.00000
     13     -13.7455      2.00000
     14     -13.7310      2.00000
     15     -13.7206      2.00000
     16     -13.6809      2.00000
     17     -13.6770      2.00000
     18     -13.6606      2.00000
     19     -13.6465      2.00000
     20     -13.6006      2.00000
     21     -13.5959      2.00000
     22     -13.5831      2.00000
     23     -13.5797      2.00000
     24     -13.5546      2.00000
     25     -13.5451      2.00000
     26     -13.4987      2.00000
     27     -13.4916      2.00000
     28     -13.4580      2.00000
     29     -13.4525      2.00000
     30     -13.4450      2.00000
     31     -13.4117      2.00000
     32     -13.4077      2.00000
     33     -13.4018      2.00000
     34     -13.3806      2.00000
     35     -13.3582      2.00000
     36     -13.3428      2.00000
     37     -13.3211      2.00000
     38     -13.3027      2.00000
     39     -13.2865      2.00000
     40     -13.2778      2.00000
     41     -13.1721      2.00000
     42     -13.1186      2.00000
     43     -12.9588      2.00000
     44     -12.9298      2.00000
     45     -12.2865      2.00000
     46     -12.2638      2.00000
     47     -12.1482      2.00000
     48     -12.1433      2.00000
     49      -5.5959      2.00000
     50      -5.3083      2.00000
     51      -5.2579      2.00000
     52      -5.1485      2.00000
     53      -5.1221      2.00000
     54      -5.0929      2.00000
     55      -4.9929      2.00000
     56      -4.6688      2.00000
     57      -3.8643      2.00000
     58      -3.6781      2.00000
     59      -3.6769      2.00000
     60      -3.4808      2.00000
     61      -3.4227      2.00000
     62      -3.3908      2.00000
     63      -3.3902      2.00000
     64      -3.3656      2.00000
     65      -3.2691      2.00000
     66      -3.2489      2.00000
     67      -3.2278      2.00000
     68      -3.2275      2.00000
     69      -3.1788      2.00000
     70      -3.0646      2.00000
     71      -3.0414      2.00000
     72      -3.0101      2.00000
     73      -3.0049      2.00000
     74      -2.9708      2.00000
     75      -2.9578      2.00000
     76      -2.8969      2.00000
     77      -2.8226      2.00000
     78      -2.7605      2.00000
     79      -2.7406      2.00000
     80      -2.7340      2.00000
     81      -2.6552      2.00000
     82      -2.6204      2.00000
     83      -2.6146      2.00000
     84      -2.5933      2.00000
     85      -2.5658      2.00000
     86      -2.5531      2.00000
     87      -2.5020      2.00000
     88      -2.4549      2.00000
     89      -2.4127      2.00000
     90      -2.3910      2.00000
     91      -2.3666      2.00000
     92      -2.3503      2.00000
     93      -2.3224      2.00000
     94      -2.3143      2.00000
     95      -2.3060      2.00000
     96      -2.3044      2.00000
     97      -2.2540      2.00000
     98      -2.2213      2.00000
     99      -2.2176      2.00000
    100      -2.1935      2.00000
    101      -2.1636      2.00000
    102      -2.1441      2.00000
    103      -2.1206      2.00000
    104      -2.0643      2.00000
    105      -2.0192      2.00000
    106      -2.0030      2.00000
    107      -1.9693      2.00000
    108      -1.9541      2.00000
    109      -1.9308      2.00000
    110      -1.9108      2.00000
    111      -1.9022      2.00000
    112      -1.8898      2.00000
    113      -1.8566      2.00000
    114      -1.8241      2.00000
    115      -1.8223      2.00000
    116      -1.7921      2.00000
    117      -1.7766      2.00000
    118      -1.7207      2.00000
    119      -1.7026      2.00000
    120      -1.6860      2.00000
    121      -1.6760      2.00000
    122      -1.6752      2.00000
    123      -1.6475      2.00000
    124      -1.6422      2.00000
    125      -1.6107      2.00000
    126      -1.6071      2.00000
    127      -1.5811      2.00000
    128      -1.5580      2.00000
    129      -1.5510      2.00000
    130      -1.5282      2.00000
    131      -1.5200      2.00000
    132      -1.5135      2.00000
    133      -1.4903      2.00000
    134      -1.4638      2.00000
    135      -1.4473      2.00000
    136      -1.4403      2.00000
    137      -1.4322      2.00000
    138      -1.3917      2.00000
    139      -1.3907      2.00000
    140      -1.3810      2.00000
    141      -1.3506      2.00000
    142      -1.3498      2.00000
    143      -1.3335      2.00000
    144      -1.3320      2.00000
    145      -1.3076      2.00000
    146      -1.2979      2.00000
    147      -1.2809      2.00000
    148      -1.2679      2.00000
    149      -1.2541      2.00000
    150      -1.2430      2.00000
    151      -1.2277      2.00000
    152      -1.2099      2.00000
    153      -1.1961      2.00000
    154      -1.1808      2.00000
    155      -1.1793      2.00000
    156      -1.1586      2.00000
    157      -1.1493      2.00000
    158      -1.1189      2.00000
    159      -1.0962      2.00000
    160      -1.0824      2.00000
    161      -1.0814      2.00000
    162      -1.0754      2.00000
    163      -1.0598      2.00000
    164      -1.0559      2.00000
    165      -1.0143      2.00000
    166      -0.9934      2.00000
    167      -0.9808      2.00000
    168      -0.9739      2.00000
    169      -0.9465      2.00000
    170      -0.9320      2.00000
    171      -0.9210      2.00000
    172      -0.9064      2.00000
    173      -0.8803      2.00000
    174      -0.8621      2.00000
    175      -0.8321      2.00000
    176      -0.8026      2.00000
    177      -0.7956      2.00000
    178      -0.7610      2.00000
    179      -0.7541      2.00000
    180      -0.6720      2.00000
    181      -0.6691      2.00000
    182      -0.5989      2.00000
    183      -0.5963      2.00000
    184      -0.5230      2.00000
    185      -0.3606      2.00000
    186      -0.3561      2.00000
    187      -0.3401      2.00000
    188      -0.2750      2.00000
    189      -0.2406      2.00000
    190      -0.2256      2.00000
    191      -0.1612      2.00000
    192      -0.0646      2.00000
    193       2.4852      0.00000
    194       2.8051      0.00000
    195       2.8210      0.00000
    196       2.9374      0.00000
    197       3.1331      0.00000
    198       3.1474      0.00000
    199       3.2222      0.00000
    200       3.4305      0.00000
    201       5.6800      0.00000
    202       5.8151      0.00000
    203       5.9165      0.00000
    204       5.9633      0.00000
    205       6.0654      0.00000
    206       6.0772      0.00000
    207       6.1348      0.00000
    208       6.1864      0.00000
    209       6.2659      0.00000
    210       6.3699      0.00000
    211       6.4910      0.00000
    212       6.5362      0.00000
    213       6.6326      0.00000
    214       6.6420      0.00000
    215       6.6970      0.00000
    216       6.7441      0.00000
    217       6.8234      0.00000
    218       6.8385      0.00000
    219       6.9189      0.00000
    220       6.9717      0.00000
    221       6.9908      0.00000
    222       7.0512      0.00000
    223       7.1800      0.00000
    224       7.2363      0.00000
    225       7.2683      0.00000
    226       7.3660      0.00000
    227       7.4425      0.00000
    228       7.4624      0.00000
    229       7.5427      0.00000
    230       7.5572      0.00000
    231       7.6020      0.00000
    232       7.6960      0.00000
    233       7.7845      0.00000
    234       7.8045      0.00000
    235       7.8229      0.00000
    236       7.8767      0.00000
    237       7.8861      0.00000
    238       7.9049      0.00000
    239       7.9839      0.00000
    240       8.0083      0.00000


--------------------------------------------------------------------------------------------------------


 soft charge-density along one line, spin component           1
         0         1         2         3         4         5         6         7         8         9
 total charge-density along one line
 
 pseudopotential strength for first ion, spin component:           1
 47.403  -0.016  -0.003   0.019   0.003  -0.000   0.000   0.000
 -0.016   0.019  -0.000   0.000   0.000  -0.000   0.000   0.000
 -0.003  -0.000   9.108   0.000  -0.000   0.002  -0.000   0.000
  0.019   0.000   0.000   9.105   0.000  -0.000   0.002  -0.000
  0.003   0.000  -0.000   0.000   9.109   0.000  -0.000   0.002
 -0.000  -0.000   0.002  -0.000   0.000   0.035   0.000  -0.000
  0.000   0.000  -0.000   0.002  -0.000   0.000   0.035   0.000
  0.000   0.000   0.000  -0.000   0.002  -0.000   0.000   0.035
 total augmentation occupancy for first ion, spin component:           1
  1.911   0.427   0.009  -0.060  -0.010   0.011  -0.066  -0.012
  0.427   0.249  -0.054   0.334   0.058   0.013  -0.099  -0.024
  0.009  -0.054   1.759  -0.002   0.003  -0.398  -0.007   0.002
 -0.060   0.334  -0.002   1.797  -0.001  -0.007  -0.330  -0.010
 -0.010   0.058   0.003  -0.001   1.750   0.002  -0.010  -0.422
  0.011   0.013  -0.398  -0.007   0.002   0.101   0.003  -0.000
 -0.066  -0.099  -0.007  -0.330  -0.010   0.003   0.078   0.006
 -0.012  -0.024   0.002  -0.010  -0.422  -0.000   0.006   0.114


------------------------ aborting loop because EDIFF is reached ----------------------------------------


 


 total charge     
 
# of ion       s       p       d       tot
------------------------------------------
    1        1.589   3.591   0.000   5.180
    2        1.589   3.591   0.000   5.180
    3        1.599   3.535   0.000   5.134
    4        1.599   3.535   0.000   5.134
    5        1.598   3.544   0.000   5.142
    6        1.603   3.527   0.000   5.130
    7        1.598   3.539   0.000   5.137
    8        1.599   3.536   0.000   5.135
    9        1.597   3.539   0.000   5.136
   10        1.597   3.539   0.000   5.136
   11        1.594   3.555   0.000   5.149
   12        1.594   3.555   0.000   5.149
   13        1.597   3.548   0.000   5.145
   14        1.598   3.544   0.000   5.143
   15        1.599   3.543   0.000   5.142
   16        1.596   3.550   0.000   5.146
   17        1.597   3.544   0.000   5.140
   18        1.597   3.544   0.000   5.140
   19        1.595   3.548   0.000   5.143
   20        1.595   3.548   0.000   5.143
   21        1.603   3.527   0.000   5.130
   22        1.598   3.544   0.000   5.142
   23        1.599   3.536   0.000   5.135
   24        1.598   3.539   0.000   5.137
   25        1.596   3.561   0.000   5.156
   26        1.596   3.561   0.000   5.156
   27        1.596   3.546   0.000   5.142
   28        1.596   3.546   0.000   5.142
   29        1.598   3.544   0.000   5.143
   30        1.597   3.548   0.000   5.145
   31        1.596   3.550   0.000   5.146
   32        1.599   3.543   0.000   5.142
   33        1.599   3.539   0.000   5.139
   34        1.599   3.539   0.000   5.139
   35        1.596   3.552   0.000   5.148
   36        1.595   3.562   0.000   5.157
   37        1.590   3.591   0.000   5.182
   38        1.590   3.591   0.000   5.182
   39        1.599   3.537   0.000   5.136
   40        1.604   3.522   0.000   5.126
   41        1.600   3.540   0.000   5.140
   42        1.600   3.540   0.000   5.140
   43        1.595   3.562   0.000   5.157
   44        1.596   3.552   0.000   5.148
   45        1.596   3.557   0.000   5.153
   46        1.596   3.557   0.000   5.153
   47        1.604   3.522   0.000   5.126
   48        1.599   3.537   0.000   5.136
   49        0.975   1.145   0.373   2.493
   50        0.966   1.106   0.359   2.432
   51        0.971   1.148   0.382   2.501
   52        0.962   1.116   0.369   2.447
   53        0.975   1.145   0.373   2.493
   54        0.969   1.133   0.374   2.477
   55        0.971   1.148   0.382   2.501
   56        0.974   1.144   0.372   2.490
   57        0.071   0.129   0.000   0.200
   58        0.071   0.133   0.000   0.205
   59        0.056   0.102   0.000   0.158
   60        0.058   0.105   0.000   0.163
   61        0.071   0.129   0.000   0.200
   62        0.071   0.133   0.000   0.205
   63        0.056   0.101   0.000   0.157
   64        0.064   0.115   0.000   0.179
   65        0.061   0.110   0.000   0.171
   66        0.061   0.112   0.000   0.173
   67        0.056   0.101   0.000   0.157
   68        0.064   0.115   0.000   0.179
   69        0.061   0.110   0.000   0.171
   70        0.061   0.112   0.000   0.173
   71        0.056   0.102   0.000   0.158
   72        0.058   0.105   0.000   0.163
   73        0.062   0.110   0.000   0.172
   74        0.060   0.107   0.000   0.167
   75        0.068   0.126   0.000   0.195
   76        0.060   0.107   0.000   0.167
   77        0.068   0.126   0.000   0.195
   78        0.060   0.107   0.000   0.168
   79        0.062   0.110   0.000   0.172
   80        0.060   0.107   0.000   0.168
--------------------------------------------------
tot         85.916 182.106   2.985 271.007
 
    CHARGE:  cpu time    0.2217: real time    0.2218
    FORLOC:  cpu time    0.0572: real time    0.0572
    FORNL :  cpu time    1.4260: real time    1.4266
    STRESS:  cpu time    7.0181: real time    7.0322
    FORCOR:  cpu time    0.1675: real time    0.1678
    FORHAR:  cpu time    0.0811: real time    0.0812
    MIXING:  cpu time    0.0037: real time    0.0038
    OFIELD:  cpu time    0.0000: real time    0.0000

  FORCE on cell =-STRESS in cart. coord.  units (eV):
  Direction    XX          YY          ZZ          XY          YZ          ZX
  --------------------------------------------------------------------------------------
  Alpha Z   310.04809   310.04809   310.04809
  Ewald   -5105.55322 -5450.59446 -4855.58505    -0.00000    -0.00000    23.07690
  Hartree  1544.94279  1337.36401  1692.51276    -0.00000     0.00000     8.25890
  E(xc)   -1403.67428 -1403.58217 -1405.04860     0.00000     0.00000     0.16562
  Local   -4339.74173 -3802.30024 -4719.78887    -0.00000     0.00000   -32.87708
  n-local  4204.05815  4200.72633  4209.58891    -0.00000     0.00000     0.17449
  augment  -980.06690  -981.09904  -979.49718     0.00000    -0.00000    -0.09052
  Kinetic  5770.89482  5792.49600  5748.41816     0.00001     0.00000     1.40841
  Fock        0.00000     0.00000     0.00000     0.00000     0.00000     0.00000
  -------------------------------------------------------------------------------------
  Total       0.90771     3.05852     0.64821     0.00000     0.00000     0.11672
  in kB       0.78143     2.63300     0.55803     0.00000     0.00000     0.10048
  external pressure =        1.32 kB  Pullay stress =        0.00 kB


 VOLUME and BASIS-vectors are now :
 -----------------------------------------------------------------------------
  energy-cutoff  :      520.00
  volume of cell :     1861.11
      direct lattice vectors                 reciprocal lattice vectors
    13.459017910  0.000000000 -0.273085008     0.074898101  0.000000000  0.029495859
     0.000000000 11.456071877  0.000000000     0.000000000  0.087289955  0.000000000
    -4.791777054  0.000000000 12.167640179     0.001680979  0.000000000  0.082847197

  length of vectors
    13.461788088 11.456071877 13.077178399     0.080496777  0.087289955  0.082864248


 FORCES acting on ions
    electron-ion (+dipol)            ewald-force                    non-local-force                 convergence-correction
 -----------------------------------------------------------------------------------------------
   0.142E+02 0.718E+01 0.548E+02   -.144E+02 -.697E+01 -.563E+02   0.158E+00 -.217E+00 0.143E+01   0.410E-02 0.283E-02 -.109E-01
   -.142E+02 0.718E+01 -.548E+02   0.144E+02 -.697E+01 0.563E+02   -.158E+00 -.217E+00 -.143E+01   -.410E-02 0.283E-02 0.109E-01
   0.218E+02 -.725E+02 0.138E+01   -.229E+02 0.746E+02 -.300E+01   0.107E+01 -.213E+01 0.162E+01   0.267E-02 -.193E-02 -.156E-02
   -.218E+02 -.725E+02 -.138E+01   0.229E+02 0.746E+02 0.300E+01   -.107E+01 -.213E+01 -.162E+01   -.267E-02 -.193E-02 0.156E-02
   -.406E+02 -.418E+02 0.355E+01   0.414E+02 0.436E+02 -.273E+01   -.814E+00 -.183E+01 -.815E+00   0.292E-02 -.256E-02 -.461E-02
   -.325E+02 -.387E+02 0.274E+02   0.335E+02 0.396E+02 -.288E+02   -.996E+00 -.926E+00 0.146E+01   -.259E-02 -.471E-02 -.228E-02
   0.224E+02 0.764E+02 -.450E+01   -.236E+02 -.785E+02 0.367E+01   0.113E+01 0.211E+01 0.829E+00   -.235E-02 -.312E-03 -.463E-02
   -.252E+02 0.516E+02 0.162E+02   0.261E+02 -.539E+02 -.150E+02   -.844E+00 0.231E+01 -.123E+01   0.162E-02 -.456E-02 0.415E-02
   -.184E+02 -.452E+02 -.262E+01   0.191E+02 0.469E+02 0.349E+01   -.722E+00 -.177E+01 -.877E+00   0.855E-02 0.681E-02 -.366E-04
   0.184E+02 -.452E+02 0.262E+01   -.191E+02 0.469E+02 -.349E+01   0.722E+00 -.177E+01 0.877E+00   -.855E-02 0.681E-02 0.366E-04
   0.217E+02 0.264E+02 -.686E+01   -.222E+02 -.275E+02 0.663E+01   0.490E+00 0.108E+01 0.223E+00   0.202E-02 0.662E-02 0.526E-02
   -.217E+02 0.264E+02 0.686E+01   0.222E+02 -.275E+02 -.663E+01   -.490E+00 0.108E+01 -.223E+00   -.202E-02 0.662E-02 -.526E-02
   -.266E+02 -.402E+02 0.402E+01   0.277E+02 0.418E+02 -.357E+01   -.119E+01 -.159E+01 -.455E+00   -.148E-02 -.995E-03 0.209E-02
   0.195E+02 -.426E+02 -.148E+02   -.205E+02 0.446E+02 0.140E+02   0.987E+00 -.198E+01 0.784E+00   -.353E-02 0.201E-02 -.343E-02
   0.240E+02 0.588E+02 0.105E+01   -.251E+02 -.611E+02 -.165E+01   0.107E+01 0.229E+01 0.608E+00   -.106E-03 0.349E-02 -.552E-02
   -.153E+02 0.471E+02 -.247E+01   0.161E+02 -.486E+02 0.332E+01   -.778E+00 0.151E+01 -.838E+00   -.257E-02 0.268E-02 -.527E-02
   -.249E+02 -.491E+02 0.730E+01   0.259E+02 0.506E+02 -.642E+01   -.989E+00 -.156E+01 -.883E+00   -.413E-02 -.266E-02 -.111E-02
   0.249E+02 -.491E+02 -.730E+01   -.259E+02 0.506E+02 0.642E+01   0.989E+00 -.156E+01 0.883E+00   0.413E-02 -.266E-02 0.111E-02
   0.186E+02 0.360E+02 -.708E+01   -.193E+02 -.374E+02 0.646E+01   0.786E+00 0.145E+01 0.623E+00   -.307E-03 -.316E-02 -.312E-02
   -.186E+02 0.360E+02 0.708E+01   0.193E+02 -.374E+02 -.646E+01   -.786E+00 0.145E+01 -.623E+00   0.307E-03 -.316E-02 0.312E-02
   0.325E+02 -.387E+02 -.274E+02   -.335E+02 0.396E+02 0.288E+02   0.996E+00 -.926E+00 -.146E+01   0.259E-02 -.471E-02 0.228E-02
   0.406E+02 -.418E+02 -.355E+01   -.414E+02 0.436E+02 0.273E+01   0.814E+00 -.183E+01 0.815E+00   -.292E-02 -.256E-02 0.461E-02
   0.252E+02 0.516E+02 -.162E+02   -.261E+02 -.539E+02 0.150E+02   0.844E+00 0.231E+01 0.123E+01   -.162E-02 -.456E-02 -.415E-02
   -.224E+02 0.764E+02 0.450E+01   0.236E+02 -.785E+02 -.367E+01   -.113E+01 0.211E+01 -.829E+00   0.235E-02 -.312E-03 0.463E-02
   -.252E+02 -.369E+02 0.545E+01   0.255E+02 0.383E+02 -.494E+01   -.293E+00 -.147E+01 -.522E+00   0.133E-02 -.212E-02 0.162E-02
   0.252E+02 -.369E+02 -.546E+01   -.255E+02 0.383E+02 0.494E+01   0.293E+00 -.147E+01 0.522E+00   -.133E-02 -.212E-02 -.162E-02
   0.246E+02 0.291E+02 -.743E+01   -.254E+02 -.303E+02 0.648E+01   0.854E+00 0.119E+01 0.947E+00   0.335E-02 -.101E-02 0.102E-03
   -.246E+02 0.291E+02 0.743E+01   0.254E+02 -.303E+02 -.648E+01   -.854E+00 0.119E+01 -.947E+00   -.335E-02 -.101E-02 -.102E-03
   -.195E+02 -.426E+02 0.148E+02   0.205E+02 0.446E+02 -.140E+02   -.987E+00 -.198E+01 -.784E+00   0.353E-02 0.201E-02 0.343E-02
   0.266E+02 -.402E+02 -.402E+01   -.277E+02 0.418E+02 0.357E+01   0.119E+01 -.159E+01 0.455E+00   0.148E-02 -.995E-03 -.209E-02
   0.153E+02 0.471E+02 0.247E+01   -.161E+02 -.486E+02 -.332E+01   0.778E+00 0.151E+01 0.838E+00   0.257E-02 0.268E-02 0.527E-02
   -.240E+02 0.588E+02 -.105E+01   0.251E+02 -.611E+02 0.165E+01   -.107E+01 0.229E+01 -.608E+00   0.106E-03 0.349E-02 0.552E-02
   -.533E+02 -.123E+02 0.738E+00   0.559E+02 0.123E+02 -.120E+01   -.262E+01 -.266E-01 0.464E+00   0.583E-03 0.888E-02 0.149E-02
   0.533E+02 -.123E+02 -.738E+00   -.559E+02 0.123E+02 0.120E+01   0.262E+01 -.266E-01 -.464E+00   -.583E-03 0.888E-02 -.149E-02
   -.442E+02 0.750E+01 -.181E+02   0.458E+02 -.774E+01 0.173E+02   -.152E+01 0.235E+00 0.720E+00   0.101E-02 -.653E-03 -.412E-02
   0.384E+02 0.742E+01 0.131E+02   -.398E+02 -.712E+01 -.128E+02   0.144E+01 -.297E+00 -.329E+00   -.510E-02 -.198E-02 -.237E-02
   0.870E+01 -.307E+02 -.572E+02   -.873E+01 0.307E+02 0.588E+02   0.263E-01 -.181E-01 -.156E+01   0.446E-02 0.436E-02 0.228E-02
   -.870E+01 -.307E+02 0.572E+02   0.873E+01 0.307E+02 -.588E+02   -.263E-01 -.181E-01 0.156E+01   -.446E-02 0.436E-02 -.228E-02
   -.562E+02 0.540E+01 -.172E+02   0.588E+02 -.504E+01 0.164E+02   -.264E+01 -.364E+00 0.746E+00   0.320E-02 0.124E-03 -.785E-03
   0.159E+02 0.636E+02 -.213E+02   -.166E+02 -.652E+02 0.227E+02   0.773E+00 0.159E+01 -.138E+01   0.428E-03 -.870E-03 -.281E-02
   -.545E+02 -.486E+01 -.141E+02   0.572E+02 0.471E+01 0.138E+02   -.273E+01 0.150E+00 0.298E+00   0.522E-02 -.669E-03 0.755E-03
   0.545E+02 -.486E+01 0.141E+02   -.572E+02 0.471E+01 -.138E+02   0.273E+01 0.150E+00 -.298E+00   -.522E-02 -.669E-03 -.755E-03
   -.384E+02 0.742E+01 -.131E+02   0.398E+02 -.712E+01 0.128E+02   -.144E+01 -.297E+00 0.329E+00   0.510E-02 -.198E-02 0.237E-02
   0.442E+02 0.750E+01 0.181E+02   -.458E+02 -.774E+01 -.173E+02   0.152E+01 0.235E+00 -.720E+00   -.101E-02 -.653E-03 0.412E-02
   -.539E+02 -.841E+01 -.243E+02   0.557E+02 0.838E+01 0.239E+02   -.178E+01 0.289E-01 0.410E+00   0.423E-02 -.796E-03 0.111E-02
   0.539E+02 -.841E+01 0.243E+02   -.557E+02 0.838E+01 -.239E+02   0.178E+01 0.289E-01 -.410E+00   -.423E-02 -.796E-03 -.111E-02
   -.159E+02 0.636E+02 0.213E+02   0.166E+02 -.652E+02 -.227E+02   -.773E+00 0.159E+01 0.138E+01   -.428E-03 -.870E-03 0.281E-02
   0.562E+02 0.540E+01 0.172E+02   -.588E+02 -.504E+01 -.164E+02   0.264E+01 -.364E+00 -.746E+00   -.320E-02 0.124E-03 0.785E-03
   -.773E+01 0.967E+01 0.131E+01   0.934E+01 -.106E+02 -.122E+01   -.161E+01 0.944E+00 -.953E-01   -.689E-03 0.240E-03 0.156E-03
   -.492E-06 -.221E+01 -.934E-06   -.359E-05 0.338E+01 -.688E-05   0.000E+00 -.117E+01 0.000E+00   -.474E-09 -.968E-03 -.291E-08
   -.289E+01 0.328E+01 -.370E+01   0.256E+01 -.344E+01 0.276E+01   0.330E+00 0.163E+00 0.946E+00   -.514E-03 -.234E-03 0.540E-03
   0.641E-06 -.267E+01 0.981E-06   0.470E-05 0.307E+01 0.720E-05   0.000E+00 -.406E+00 0.000E+00   -.987E-09 0.695E-03 0.932E-09
   0.773E+01 0.967E+01 -.131E+01   -.934E+01 -.106E+02 0.122E+01   0.161E+01 0.944E+00 0.953E-01   0.689E-03 0.240E-03 -.156E-03
   -.496E-06 0.277E+01 -.894E-06   -.364E-05 -.258E+01 -.657E-05   0.000E+00 -.191E+00 0.000E+00   0.243E-08 0.587E-03 -.180E-08
   0.289E+01 0.328E+01 0.370E+01   -.256E+01 -.344E+01 -.276E+01   -.330E+00 0.163E+00 -.946E+00   0.514E-03 -.234E-03 -.540E-03
   0.218E-07 -.125E+02 0.146E-05   0.125E-06 0.138E+02 0.109E-04   0.000E+00 -.135E+01 0.000E+00   0.152E-08 -.151E-02 -.316E-08
   0.471E+00 -.878E+01 0.276E+01   -.940E-01 0.788E+01 -.343E+01   -.376E+00 0.898E+00 0.676E+00   -.560E-04 0.230E-03 -.165E-03
   0.320E+01 0.468E+01 -.365E+00   -.272E+01 -.349E+01 0.571E+00   -.478E+00 -.119E+01 -.207E+00   0.866E-04 -.146E-03 -.112E-03
   -.310E+01 -.405E+01 -.470E+01   0.297E+01 0.396E+01 0.462E+01   0.134E+00 0.950E-01 0.776E-01   -.145E-03 -.183E-03 -.455E-04
   -.832E+00 0.105E+02 -.121E+01   0.783E+00 -.976E+01 0.122E+01   0.507E-01 -.688E+00 -.781E-02   -.224E-03 -.546E-04 -.189E-03
   -.471E+00 -.878E+01 -.276E+01   0.940E-01 0.788E+01 0.343E+01   0.376E+00 0.898E+00 -.676E+00   0.560E-04 0.230E-03 0.165E-03
   -.320E+01 0.468E+01 0.365E+00   0.272E+01 -.349E+01 -.571E+00   0.478E+00 -.119E+01 0.207E+00   -.866E-04 -.146E-03 0.112E-03
   0.172E+01 -.540E+01 -.347E+01   -.139E+01 0.504E+01 0.303E+01   -.332E+00 0.356E+00 0.438E+00   0.595E-04 -.478E-04 -.859E-06
   -.588E+00 -.757E-01 -.152E-01   0.599E-01 -.731E+00 -.288E+00   0.528E+00 0.807E+00 0.304E+00   0.470E-04 0.517E-04 -.223E-03
   -.132E+01 -.807E+01 0.841E+00   0.138E+01 0.741E+01 -.759E+00   -.575E-01 0.660E+00 -.818E-01   -.820E-04 -.129E-04 -.103E-03
   0.372E+00 0.813E+01 -.670E+00   -.398E+00 -.735E+01 0.658E+00   0.267E-01 -.781E+00 0.133E-01   -.134E-03 0.229E-04 0.434E-04
   -.172E+01 -.540E+01 0.347E+01   0.139E+01 0.504E+01 -.303E+01   0.332E+00 0.356E+00 -.438E+00   -.595E-04 -.478E-04 0.860E-06
   0.588E+00 -.757E-01 0.152E-01   -.599E-01 -.731E+00 0.288E+00   -.528E+00 0.807E+00 -.304E+00   -.470E-04 0.517E-04 0.223E-03
   0.132E+01 -.807E+01 -.841E+00   -.138E+01 0.741E+01 0.759E+00   0.575E-01 0.660E+00 0.818E-01   0.820E-04 -.129E-04 0.103E-03
   -.372E+00 0.813E+01 0.670E+00   0.398E+00 -.735E+01 -.658E+00   -.267E-01 -.781E+00 -.133E-01   0.134E-03 0.229E-04 -.434E-04
   0.310E+01 -.405E+01 0.470E+01   -.297E+01 0.396E+01 -.462E+01   -.134E+00 0.950E-01 -.776E-01   0.145E-03 -.183E-03 0.455E-04
   0.832E+00 0.105E+02 0.121E+01   -.783E+00 -.976E+01 -.122E+01   -.507E-01 -.688E+00 0.781E-02   0.224E-03 -.546E-04 0.189E-03
   0.464E+01 0.445E+01 0.440E+01   -.496E+01 -.336E+01 -.454E+01   0.317E+00 -.109E+01 0.140E+00   0.173E-03 0.237E-03 -.173E-03
   -.274E+01 0.626E+00 -.456E+00   0.266E+01 -.676E+00 0.346E+00   0.848E-01 0.496E-01 0.111E+00   0.282E-04 -.513E-04 -.814E-04
   -.548E+01 -.175E+01 -.419E+00   0.446E+01 0.180E+01 0.779E+00   0.101E+01 -.532E-01 -.359E+00   0.134E-03 0.598E-04 -.768E-04
   0.274E+01 0.626E+00 0.456E+00   -.266E+01 -.676E+00 -.346E+00   -.848E-01 0.496E-01 -.111E+00   -.282E-04 -.513E-04 0.814E-04
   0.548E+01 -.175E+01 0.419E+00   -.446E+01 0.180E+01 -.779E+00   -.101E+01 -.532E-01 0.359E+00   -.134E-03 0.598E-04 0.768E-04
   0.908E+00 0.197E+01 0.352E+00   -.778E+00 -.228E+01 -.140E-01   -.130E+00 0.313E+00 -.337E+00   -.625E-04 0.741E-05 -.372E-04
   -.464E+01 0.445E+01 -.440E+01   0.496E+01 -.336E+01 0.454E+01   -.317E+00 -.109E+01 -.140E+00   -.173E-03 0.237E-03 0.173E-03
   -.908E+00 0.197E+01 -.352E+00   0.778E+00 -.228E+01 0.140E-01   0.130E+00 0.313E+00 0.337E+00   0.625E-04 0.741E-05 0.372E-04
 -----------------------------------------------------------------------------------------------
   0.274E-03 0.257E+01 -.697E-03   -.440E-13 0.129E-13 -.137E-12   -.555E-15 -.259E+01 -.333E-15   -.613E-09 0.167E-01 -.765E-08
 
 
 POSITION                                       TOTAL-FORCE (eV/Angst)
 -----------------------------------------------------------------------------------
      1.01191      1.91716      1.90830        -0.004411     -0.001685      0.000268
      7.65533      1.91716      9.98626         0.004411     -0.001685     -0.000268
      7.77195      9.34124     10.18603        -0.003278      0.003216     -0.002526
      0.89529      9.34124      1.70853         0.003278      0.003216      0.002526
      4.19592      7.45983      1.64593         0.000795      0.003736      0.003932
     -2.65559      7.54801     10.69846         0.000023      0.001438     -0.000977
     -2.33491      4.07512     10.45010         0.000034      0.001166      0.000345
      4.22676      3.97383      1.60174         0.001026      0.001516     -0.000761
     -1.49182      1.72205      7.74454        -0.001431     -0.003236     -0.000663
     10.15906      1.72205      4.15002         0.001431     -0.003236      0.000663
     10.07861      9.61436      4.15783         0.000064     -0.000612     -0.000616
     -1.41137      9.61436      7.73672        -0.000064     -0.000612      0.000616
      2.05182      7.46631      7.58725        -0.001084     -0.003061     -0.000989
     -0.04122      7.40072      4.47203         0.001567     -0.003794      0.002081
     -0.08928      3.92575      4.63699        -0.000110      0.001026      0.002123
      1.88062      4.01662      7.76991        -0.000423      0.001388      0.000392
      7.68097      1.76027      1.49653         0.001091     -0.000344     -0.000662
      0.98627      1.76027     10.39802        -0.001091     -0.000344      0.000662
      1.04717      9.71591     10.39180         0.002135      0.005761      0.003919
      7.62007      9.71591      1.50275        -0.002135      0.005761     -0.003919
     11.32283      7.54801      1.19609        -0.000023      0.001438      0.000977
      4.47132      7.45983     10.24863        -0.000795      0.003736     -0.003932
      4.44048      3.97383     10.29282        -0.001026      0.001516      0.000761
     11.00215      4.07512      1.44445        -0.000034      0.001166     -0.000345
      5.08101      1.81204      7.57720        -0.002832     -0.004347     -0.003980
      3.58623      1.81204      4.31736         0.002832     -0.004347      0.003980
      3.37719      9.75885      4.19758         0.000904      0.003448      0.002192
      5.29005      9.75885      7.69697        -0.000904      0.003448     -0.002192
      8.70846      7.40072      7.42253        -0.001567     -0.003794     -0.002081
      6.61542      7.46631      4.30730         0.001084     -0.003061      0.000989
      6.78662      4.01662      4.12464         0.000423      0.001388     -0.000392
      8.75652      3.92575      7.25756         0.000110      0.001026     -0.002123
     -0.33371     11.32307      4.64983         0.000985     -0.002857      0.000429
      9.00096     11.32307      7.24473        -0.000985     -0.002857     -0.000429
      2.98621      5.62364      4.51233         0.000471      0.000282     -0.000919
     -1.12522      5.88821      7.61642         0.003839     -0.000766     -0.000144
     -2.53873     11.32842     10.68864        -0.000912      0.000495      0.003212
     11.20597     11.32842      1.20592         0.000912      0.000495     -0.003212
      0.60183      5.98139     10.66433        -0.000397     -0.000467     -0.000054
      1.11900      5.82330      1.32514        -0.000452     -0.001773      0.003430
      6.45344     11.37235      4.59099        -0.001101      0.000243      0.000864
      2.21380     11.37235      7.30357         0.001101      0.000243     -0.000864
      9.79246      5.88821      4.27814        -0.003839     -0.000766      0.000144
      5.68103      5.62364      7.38223        -0.000471      0.000282      0.000919
      4.01449      0.04009     10.53394        -0.001690      0.000832     -0.000203
      4.65275      0.04009      1.36062         0.001690      0.000832      0.000203
      7.54824      5.82330     10.56942         0.000452     -0.001773     -0.003430
      8.06541      5.98139      1.23023         0.000397     -0.000467      0.000054
      3.41209      5.68841     -0.00901         0.000469     -0.003727     -0.001494
     -2.39589      0.00479      6.08382        -0.000000     -0.001767      0.000000
      0.95301      5.70860      6.07177        -0.003355      0.004895      0.003619
      6.72951      0.04212     -0.13654        -0.000000     -0.005637      0.000000
      5.25515      5.68841     11.90356        -0.000469     -0.003727      0.001494
      4.33362     11.40098      5.94728        -0.000000      0.003194      0.000000
      7.71424      5.70860      5.82278         0.003355      0.004895     -0.003619
      0.00000      7.78672      0.00000        -0.000000     -0.004258      0.000000
     12.36345      1.39838      2.48073         0.000182     -0.001224      0.005057
     -3.43264      9.87098      9.15647        -0.001567     -0.003699     -0.000614
      2.11046      7.61679      3.14833        -0.001674     -0.000365      0.000417
     -0.20108      4.13223      9.15705         0.001306      0.005965      0.004373
     -3.69621      1.39838      9.41382        -0.000182     -0.001224     -0.005057
     12.09988      9.87098      2.73808         0.001567     -0.003699      0.000614
     -0.00926      7.76307      8.86704         0.000246      0.001862     -0.000500
      1.99519      3.48326      3.28182        -0.000411      0.000180      0.000747
      5.72399      1.65047      3.02298         0.001768      0.001767      0.000614
      3.11703      9.80650      8.97908         0.000174      0.000482      0.000725
      8.67650      7.76307      3.02752        -0.000246      0.001862      0.000500
      6.67205      3.48326      8.61274         0.000411      0.000180     -0.000747
      2.94325      1.65047      8.87157        -0.001768      0.001767     -0.000614
      5.55021      9.80650      2.91547        -0.000174      0.000482     -0.000725
      6.55678      7.61679      8.74623         0.001674     -0.000365     -0.000417
      8.86832      4.13223      2.73751        -0.001306      0.005965     -0.004373
      2.45187      0.29884      2.63195         0.000352      0.000657      0.001535
      5.20615      5.70071      3.12531        -0.001121     -0.000198      0.000027
     -0.67034      0.01316      9.35447         0.000548     -0.001270      0.000362
      3.46109      5.70071      8.76924         0.001121     -0.000198     -0.000027
      9.33758      0.01316      2.54008        -0.000548     -0.001270     -0.000362
     12.04639      5.57502      3.16657         0.000336     -0.002695      0.001345
      6.21538      0.29884      9.26260        -0.000352      0.000657     -0.001535
     -3.37915      5.57502      8.72799        -0.000336     -0.002695     -0.001345
 -----------------------------------------------------------------------------------
    total drift:                                0.000274     -0.000748     -0.000697


--------------------------------------------------------------------------------------------------------



  FREE ENERGIE OF THE ION-ELECTRON SYSTEM (eV)
  ---------------------------------------------------
  free  energy   TOTEN  =      -274.09788468 eV

  energy  without entropy=     -274.09788468  energy(sigma->0) =     -274.09788468
 
 d Force = 0.8989909E-04[ 0.772E-04, 0.103E-03]  d Energy = 0.8649384E-04 0.341E-05
 d Force =-0.1559622E+00[-0.156E+00,-0.156E+00]  d Ewald  =-0.1559616E+00-0.665E-06


--------------------------------------------------------------------------------------------------------


    POTLOK:  cpu time    0.2917: real time    0.2918


--------------------------------------------------------------------------------------------------------


 Conjugate gradient step on ions:
 trial-energy change:   -0.000086  1 .order   -0.000090   -0.000103   -0.000077
  (g-gl).g = 0.817E-04      g.g   = 0.753E-04  gl.gl    = 0.767E-04
 g(Force)  = 0.753E-04   g(Stress)= 0.000E+00 ortho     = 0.118E-04
 gamma     =   1.06507
 trial     =   1.16803
 opt step  =   4.67213  (harmonic =   4.72895) maximal distance =0.00444594
 next E    =  -274.098006   (d E  =  -0.00021)


--------------------------------------------------------------------------------------------------------


    WAVPRE:  cpu time    0.0689: real time    0.0710
    FEWALD:  cpu time    0.0016: real time    0.0016
    ORTHCH:  cpu time    0.8998: real time    0.9006
     LOOP+:  cpu time   28.1709: real time   28.3337


--------------------------------------- Iteration     15(   1)  ---------------------------------------


    POTLOK:  cpu time    0.1300: real time    0.1331
    SETDIJ:  cpu time    0.1581: real time    0.1582
     EDDAV:  cpu time    5.1419: real time    5.1480
       DOS:  cpu time    0.0002: real time    0.0002
    CHARGE:  cpu time    0.2243: real time    0.2245
    MIXING:  cpu time    0.0043: real time    0.0043
    --------------------------------------------
      LOOP:  cpu time    5.6588: real time    5.6683

 eigenvalue-minimisations  :   480
 total energy-change (2. order) : 0.4303624E-03  (-0.1443264E-01)
 number of electron     384.0000001 magnetization 
 augmentation part      -49.4175275 magnetization 

 Broyden mixing:
  rms(total) = 0.72525E-02    rms(broyden)= 0.72516E-02
  rms(prec ) = 0.83032E-02
  weight for this iteration     100.00

 Free energy of the ion-electron system (eV)
  ---------------------------------------------------
  alpha Z        PSCENC =       310.04809462
  Ewald energy   TEWEN  =    -15411.17245219
  -Hartree energ DENC   =     -4575.18285232
  -exchange      EXHF   =         0.00000000
  -V(xc)+E(xc)   XCENC  =       447.05747343
  PAW double counting   =     11244.33625227   -10653.62697046
  entropy T*S    EENTRO =        -0.00000000
  eigenvalues    EBANDS =     -1859.81615591
  atomic energy  EATOM  =     20224.25915541
  Solvation  Ediel_sol  =         0.00000000
  ---------------------------------------------------
  free energy    TOTEN  =      -274.09745516 eV

  energy without entropy =     -274.09745516  energy(sigma->0) =     -274.09745516


--------------------------------------------------------------------------------------------------------




--------------------------------------- Iteration     15(   2)  ---------------------------------------


    POTLOK:  cpu time    0.1306: real time    0.1356
    SETDIJ:  cpu time    0.1581: real time    0.1581
     EDDAV:  cpu time    5.8231: real time    5.8272
       DOS:  cpu time    0.0002: real time    0.0002
    CHARGE:  cpu time    0.2232: real time    0.2233
    MIXING:  cpu time    0.0045: real time    0.0045
    --------------------------------------------
      LOOP:  cpu time    6.3397: real time    6.3489

 eigenvalue-minimisations  :   560
 total energy-change (2. order) :-0.6084735E-03  (-0.6666587E-03)
 number of electron     384.0000001 magnetization 
 augmentation part      -49.4175951 magnetization 

 Broyden mixing:
  rms(total) = 0.22333E-02    rms(broyden)= 0.22297E-02
  rms(prec ) = 0.30134E-02
  weight for this iteration     100.00

 eigenvalues of (default mixing * dielectric matrix)
  average eigenvalue GAMMA=   0.9059
  0.9059

 Free energy of the ion-electron system (eV)
  ---------------------------------------------------
  alpha Z        PSCENC =       310.04809462
  Ewald energy   TEWEN  =    -15411.17245219
  -Hartree energ DENC   =     -4575.18222288
  -exchange      EXHF   =         0.00000000
  -V(xc)+E(xc)   XCENC  =       447.05718597
  PAW double counting   =     11244.36839548   -10653.65945204
  entropy T*S    EENTRO =        -0.00000000
  eigenvalues    EBANDS =     -1859.81676800
  atomic energy  EATOM  =     20224.25915541
  Solvation  Ediel_sol  =         0.00000000
  ---------------------------------------------------
  free energy    TOTEN  =      -274.09806363 eV

  energy without entropy =     -274.09806363  energy(sigma->0) =     -274.09806363


--------------------------------------------------------------------------------------------------------




--------------------------------------- Iteration     15(   3)  ---------------------------------------


    POTLOK:  cpu time    0.1344: real time    0.1347
    SETDIJ:  cpu time    0.1629: real time    0.1630
     EDDAV:  cpu time    6.1560: real time    6.1610
       DOS:  cpu time    0.0002: real time    0.0002
    CHARGE:  cpu time    0.2236: real time    0.2239
    MIXING:  cpu time    0.0043: real time    0.0043
    --------------------------------------------
      LOOP:  cpu time    6.6814: real time    6.6871

 eigenvalue-minimisations  :   600
 total energy-change (2. order) : 0.4233341E-05  (-0.1067100E-04)
 number of electron     384.0000001 magnetization 
 augmentation part      -49.4175397 magnetization 

 Broyden mixing:
  rms(total) = 0.18842E-02    rms(broyden)= 0.18841E-02
  rms(prec ) = 0.25151E-02
  weight for this iteration     100.00

 eigenvalues of (default mixing * dielectric matrix)
  average eigenvalue GAMMA=   1.7741
  1.0564  2.4917

 Free energy of the ion-electron system (eV)
  ---------------------------------------------------
  alpha Z        PSCENC =       310.04809462
  Ewald energy   TEWEN  =    -15411.17245219
  -Hartree energ DENC   =     -4575.18493743
  -exchange      EXHF   =         0.00000000
  -V(xc)+E(xc)   XCENC  =       447.05701144
  PAW double counting   =     11244.39065447   -10653.68202340
  entropy T*S    EENTRO =        -0.00000000
  eigenvalues    EBANDS =     -1859.81356230
  atomic energy  EATOM  =     20224.25915541
  Solvation  Ediel_sol  =         0.00000000
  ---------------------------------------------------
  free energy    TOTEN  =      -274.09805940 eV

  energy without entropy =     -274.09805940  energy(sigma->0) =     -274.09805940


--------------------------------------------------------------------------------------------------------




--------------------------------------- Iteration     15(   4)  ---------------------------------------


    POTLOK:  cpu time    0.1306: real time    0.1351
    SETDIJ:  cpu time    0.1575: real time    0.1576
     EDDAV:  cpu time    5.4919: real time    5.4962
       DOS:  cpu time    0.0002: real time    0.0002
    CHARGE:  cpu time    0.2232: real time    0.2233
    MIXING:  cpu time    0.0046: real time    0.0046
    --------------------------------------------
      LOOP:  cpu time    6.0080: real time    6.0171

 eigenvalue-minimisations  :   520
 total energy-change (2. order) : 0.1410234E-04  (-0.6912060E-05)
 number of electron     384.0000001 magnetization 
 augmentation part      -49.4174567 magnetization 

 Broyden mixing:
  rms(total) = 0.65019E-03    rms(broyden)= 0.65018E-03
  rms(prec ) = 0.78126E-03
  weight for this iteration     100.00

 eigenvalues of (default mixing * dielectric matrix)
  average eigenvalue GAMMA=   1.7037
  3.1804  0.9653  0.9653

 Free energy of the ion-electron system (eV)
  ---------------------------------------------------
  alpha Z        PSCENC =       310.04809462
  Ewald energy   TEWEN  =    -15411.17245219
  -Hartree energ DENC   =     -4575.19460411
  -exchange      EXHF   =         0.00000000
  -V(xc)+E(xc)   XCENC  =       447.05697101
  PAW double counting   =     11244.45207386   -10653.74426265
  entropy T*S    EENTRO =        -0.00000000
  eigenvalues    EBANDS =     -1859.80302124
  atomic energy  EATOM  =     20224.25915541
  Solvation  Ediel_sol  =         0.00000000
  ---------------------------------------------------
  free energy    TOTEN  =      -274.09804529 eV

  energy without entropy =     -274.09804529  energy(sigma->0) =     -274.09804529


--------------------------------------------------------------------------------------------------------




--------------------------------------- Iteration     15(   5)  ---------------------------------------


    POTLOK:  cpu time    0.1305: real time    0.1351
    SETDIJ:  cpu time    0.1578: real time    0.1578
     EDDAV:  cpu time    5.1635: real time    5.1668
       DOS:  cpu time    0.0003: real time    0.0003
    --------------------------------------------
      LOOP:  cpu time    5.4521: real time    5.4600

 eigenvalue-minimisations  :   480
 total energy-change (2. order) :-0.2258348E-05  (-0.1886390E-05)
 number of electron     384.0000001 magnetization 
 augmentation part      -49.4174567 magnetization 

 Free energy of the ion-electron system (eV)
  ---------------------------------------------------
  alpha Z        PSCENC =       310.04809462
  Ewald energy   TEWEN  =    -15411.17245219
  -Hartree energ DENC   =     -4575.19564790
  -exchange      EXHF   =         0.00000000
  -V(xc)+E(xc)   XCENC  =       447.05705089
  PAW double counting   =     11244.47432339   -10653.76681349
  entropy T*S    EENTRO =        -0.00000000
  eigenvalues    EBANDS =     -1859.80175827
  atomic energy  EATOM  =     20224.25915541
  Solvation  Ediel_sol  =         0.00000000
  ---------------------------------------------------
  free energy    TOTEN  =      -274.09804755 eV

  energy without entropy =     -274.09804755  energy(sigma->0) =     -274.09804755


--------------------------------------------------------------------------------------------------------




 average (electrostatic) potential at core
  the test charge radii are     0.9406  1.4837  0.9748
  (the norm of the test charge is              1.0000)
       1 -92.6802       2 -92.6803       3 -94.2159       4 -94.2158       5 -94.0859
       6 -94.7261       7 -94.1139       8 -94.0456       9 -93.5682      10 -93.5682
      11 -93.6647      12 -93.6647      13 -94.1615      14 -94.0204      15 -94.0123
      16 -94.1619      17 -93.9883      18 -93.9884      19 -93.9812      20 -93.9812
      21 -94.7261      22 -94.0859      23 -94.0457      24 -94.1139      25 -94.0006
      26 -94.0006      27 -94.0169      28 -94.0169      29 -94.0204      30 -94.1615
      31 -94.1619      32 -94.0123      33 -93.7022      34 -93.7022      35 -94.0637
      36 -94.1340      37 -92.5404      38 -92.5404      39 -94.0681      40 -94.6559
      41 -93.9861      42 -93.9861      43 -94.1340      44 -94.0638      45 -94.0858
      46 -94.0858      47 -94.6559      48 -94.0681      49 -41.9789      50 -41.5383
      51 -41.8885      52 -41.9135      53 -41.9789      54 -41.8112      55 -41.8885
      56 -42.2071      57 -27.8233      58 -28.1130      59 -28.7398      60 -28.7694
      61 -27.8233      62 -28.1130      63 -28.8958      64 -28.3762      65 -28.6616
      66 -28.6636      67 -28.8958      68 -28.3762      69 -28.6617      70 -28.6635
      71 -28.7398      72 -28.7694      73 -28.5149      74 -28.7524      75 -27.9711
      76 -28.7524      77 -27.9710      78 -28.8459      79 -28.5149      80 -28.8459
 
 
 
 E-fermi :   0.4225     XC(G=0):  -7.8727     alpha+bet : -7.9187


 k-point     1 :       0.0000    0.0000    0.0000
  band No.  band energies     occupation 
      1     -14.6447      2.00000
      2     -14.3816      2.00000
      3     -14.1665      2.00000
      4     -14.1425      2.00000
      5     -14.0821      2.00000
      6     -14.0592      2.00000
      7     -14.0436      2.00000
      8     -13.9209      2.00000
      9     -13.8706      2.00000
     10     -13.8345      2.00000
     11     -13.8069      2.00000
     12     -13.7715      2.00000
     13     -13.7457      2.00000
     14     -13.7304      2.00000
     15     -13.7202      2.00000
     16     -13.6801      2.00000
     17     -13.6761      2.00000
     18     -13.6577      2.00000
     19     -13.6471      2.00000
     20     -13.6008      2.00000
     21     -13.5967      2.00000
     22     -13.5843      2.00000
     23     -13.5801      2.00000
     24     -13.5561      2.00000
     25     -13.5446      2.00000
     26     -13.4991      2.00000
     27     -13.4930      2.00000
     28     -13.4589      2.00000
     29     -13.4527      2.00000
     30     -13.4448      2.00000
     31     -13.4114      2.00000
     32     -13.4082      2.00000
     33     -13.4019      2.00000
     34     -13.3815      2.00000
     35     -13.3584      2.00000
     36     -13.3431      2.00000
     37     -13.3205      2.00000
     38     -13.3030      2.00000
     39     -13.2867      2.00000
     40     -13.2790      2.00000
     41     -13.1726      2.00000
     42     -13.1191      2.00000
     43     -12.9590      2.00000
     44     -12.9300      2.00000
     45     -12.2881      2.00000
     46     -12.2656      2.00000
     47     -12.1477      2.00000
     48     -12.1429      2.00000
     49      -5.5948      2.00000
     50      -5.3085      2.00000
     51      -5.2583      2.00000
     52      -5.1490      2.00000
     53      -5.1226      2.00000
     54      -5.0934      2.00000
     55      -4.9935      2.00000
     56      -4.6689      2.00000
     57      -3.8640      2.00000
     58      -3.6780      2.00000
     59      -3.6766      2.00000
     60      -3.4802      2.00000
     61      -3.4241      2.00000
     62      -3.3914      2.00000
     63      -3.3909      2.00000
     64      -3.3658      2.00000
     65      -3.2687      2.00000
     66      -3.2489      2.00000
     67      -3.2277      2.00000
     68      -3.2274      2.00000
     69      -3.1789      2.00000
     70      -3.0646      2.00000
     71      -3.0414      2.00000
     72      -3.0109      2.00000
     73      -3.0050      2.00000
     74      -2.9711      2.00000
     75      -2.9595      2.00000
     76      -2.8978      2.00000
     77      -2.8229      2.00000
     78      -2.7617      2.00000
     79      -2.7400      2.00000
     80      -2.7348      2.00000
     81      -2.6553      2.00000
     82      -2.6205      2.00000
     83      -2.6149      2.00000
     84      -2.5933      2.00000
     85      -2.5657      2.00000
     86      -2.5531      2.00000
     87      -2.5028      2.00000
     88      -2.4555      2.00000
     89      -2.4120      2.00000
     90      -2.3908      2.00000
     91      -2.3660      2.00000
     92      -2.3506      2.00000
     93      -2.3226      2.00000
     94      -2.3144      2.00000
     95      -2.3058      2.00000
     96      -2.3052      2.00000
     97      -2.2543      2.00000
     98      -2.2212      2.00000
     99      -2.2185      2.00000
    100      -2.1933      2.00000
    101      -2.1635      2.00000
    102      -2.1438      2.00000
    103      -2.1212      2.00000
    104      -2.0638      2.00000
    105      -2.0198      2.00000
    106      -2.0026      2.00000
    107      -1.9696      2.00000
    108      -1.9551      2.00000
    109      -1.9304      2.00000
    110      -1.9107      2.00000
    111      -1.9020      2.00000
    112      -1.8899      2.00000
    113      -1.8564      2.00000
    114      -1.8237      2.00000
    115      -1.8222      2.00000
    116      -1.7916      2.00000
    117      -1.7770      2.00000
    118      -1.7212      2.00000
    119      -1.7024      2.00000
    120      -1.6859      2.00000
    121      -1.6760      2.00000
    122      -1.6757      2.00000
    123      -1.6483      2.00000
    124      -1.6425      2.00000
    125      -1.6108      2.00000
    126      -1.6074      2.00000
    127      -1.5812      2.00000
    128      -1.5587      2.00000
    129      -1.5509      2.00000
    130      -1.5279      2.00000
    131      -1.5201      2.00000
    132      -1.5140      2.00000
    133      -1.4905      2.00000
    134      -1.4643      2.00000
    135      -1.4473      2.00000
    136      -1.4405      2.00000
    137      -1.4328      2.00000
    138      -1.3923      2.00000
    139      -1.3906      2.00000
    140      -1.3809      2.00000
    141      -1.3508      2.00000
    142      -1.3497      2.00000
    143      -1.3341      2.00000
    144      -1.3318      2.00000
    145      -1.3078      2.00000
    146      -1.2985      2.00000
    147      -1.2816      2.00000
    148      -1.2683      2.00000
    149      -1.2540      2.00000
    150      -1.2419      2.00000
    151      -1.2284      2.00000
    152      -1.2104      2.00000
    153      -1.1965      2.00000
    154      -1.1805      2.00000
    155      -1.1801      2.00000
    156      -1.1594      2.00000
    157      -1.1496      2.00000
    158      -1.1195      2.00000
    159      -1.0970      2.00000
    160      -1.0836      2.00000
    161      -1.0819      2.00000
    162      -1.0752      2.00000
    163      -1.0602      2.00000
    164      -1.0558      2.00000
    165      -1.0142      2.00000
    166      -0.9936      2.00000
    167      -0.9805      2.00000
    168      -0.9739      2.00000
    169      -0.9469      2.00000
    170      -0.9319      2.00000
    171      -0.9217      2.00000
    172      -0.9068      2.00000
    173      -0.8804      2.00000
    174      -0.8645      2.00000
    175      -0.8326      2.00000
    176      -0.8030      2.00000
    177      -0.7963      2.00000
    178      -0.7617      2.00000
    179      -0.7543      2.00000
    180      -0.6731      2.00000
    181      -0.6702      2.00000
    182      -0.5994      2.00000
    183      -0.5972      2.00000
    184      -0.5235      2.00000
    185      -0.3610      2.00000
    186      -0.3560      2.00000
    187      -0.3401      2.00000
    188      -0.2743      2.00000
    189      -0.2406      2.00000
    190      -0.2249      2.00000
    191      -0.1611      2.00000
    192      -0.0652      2.00000
    193       2.4862      0.00000
    194       2.8060      0.00000
    195       2.8224      0.00000
    196       2.9378      0.00000
    197       3.1335      0.00000
    198       3.1482      0.00000
    199       3.2227      0.00000
    200       3.4305      0.00000
    201       5.6810      0.00000
    202       5.8154      0.00000
    203       5.9174      0.00000
    204       5.9633      0.00000
    205       6.0656      0.00000
    206       6.0781      0.00000
    207       6.1352      0.00000
    208       6.1862      0.00000
    209       6.2666      0.00000
    210       6.3694      0.00000
    211       6.4917      0.00000
    212       6.5370      0.00000
    213       6.6333      0.00000
    214       6.6426      0.00000
    215       6.6971      0.00000
    216       6.7440      0.00000
    217       6.8231      0.00000
    218       6.8393      0.00000
    219       6.9195      0.00000
    220       6.9720      0.00000
    221       6.9918      0.00000
    222       7.0509      0.00000
    223       7.1796      0.00000
    224       7.2354      0.00000
    225       7.2677      0.00000
    226       7.3665      0.00000
    227       7.4427      0.00000
    228       7.4625      0.00000
    229       7.5434      0.00000
    230       7.5566      0.00000
    231       7.6020      0.00000
    232       7.6953      0.00000
    233       7.7843      0.00000
    234       7.8043      0.00000
    235       7.8231      0.00000
    236       7.8769      0.00000
    237       7.8858      0.00000
    238       7.9047      0.00000
    239       7.9841      0.00000
    240       8.0089      0.00000


--------------------------------------------------------------------------------------------------------


 soft charge-density along one line, spin component           1
         0         1         2         3         4         5         6         7         8         9
 total charge-density along one line
 
 pseudopotential strength for first ion, spin component:           1
 47.403  -0.016  -0.003   0.019   0.003  -0.000   0.000   0.000
 -0.016   0.019  -0.000   0.000   0.000  -0.000   0.000   0.000
 -0.003  -0.000   9.108   0.000  -0.000   0.002  -0.000   0.000
  0.019   0.000   0.000   9.105   0.000  -0.000   0.002  -0.000
  0.003   0.000  -0.000   0.000   9.109   0.000  -0.000   0.002
 -0.000  -0.000   0.002  -0.000   0.000   0.035   0.000   0.000
  0.000   0.000  -0.000   0.002  -0.000   0.000   0.035   0.000
  0.000   0.000   0.000  -0.000   0.002   0.000   0.000   0.035
 total augmentation occupancy for first ion, spin component:           1
  1.911   0.427   0.009  -0.060  -0.010   0.011  -0.066  -0.012
  0.427   0.249  -0.053   0.333   0.058   0.013  -0.099  -0.024
  0.009  -0.053   1.759  -0.002   0.003  -0.398  -0.007   0.002
 -0.060   0.333  -0.002   1.798  -0.001  -0.007  -0.330  -0.010
 -0.010   0.058   0.003  -0.001   1.750   0.002  -0.010  -0.423
  0.011   0.013  -0.398  -0.007   0.002   0.101   0.003  -0.000
 -0.066  -0.099  -0.007  -0.330  -0.010   0.003   0.078   0.006
 -0.012  -0.024   0.002  -0.010  -0.423  -0.000   0.006   0.114


------------------------ aborting loop because EDIFF is reached ----------------------------------------


 


 total charge     
 
# of ion       s       p       d       tot
------------------------------------------
    1        1.589   3.591   0.000   5.180
    2        1.589   3.591   0.000   5.180
    3        1.599   3.535   0.000   5.134
    4        1.599   3.535   0.000   5.134
    5        1.598   3.544   0.000   5.142
    6        1.603   3.527   0.000   5.130
    7        1.598   3.539   0.000   5.137
    8        1.599   3.536   0.000   5.135
    9        1.597   3.539   0.000   5.136
   10        1.597   3.539   0.000   5.136
   11        1.594   3.555   0.000   5.149
   12        1.594   3.555   0.000   5.149
   13        1.597   3.548   0.000   5.145
   14        1.598   3.544   0.000   5.143
   15        1.599   3.542   0.000   5.142
   16        1.596   3.550   0.000   5.146
   17        1.597   3.544   0.000   5.140
   18        1.597   3.544   0.000   5.140
   19        1.595   3.548   0.000   5.143
   20        1.595   3.548   0.000   5.143
   21        1.603   3.527   0.000   5.130
   22        1.598   3.544   0.000   5.142
   23        1.599   3.536   0.000   5.135
   24        1.598   3.539   0.000   5.137
   25        1.596   3.561   0.000   5.156
   26        1.596   3.561   0.000   5.156
   27        1.596   3.546   0.000   5.142
   28        1.596   3.546   0.000   5.142
   29        1.598   3.544   0.000   5.143
   30        1.597   3.548   0.000   5.145
   31        1.596   3.550   0.000   5.146
   32        1.599   3.542   0.000   5.142
   33        1.599   3.539   0.000   5.139
   34        1.599   3.539   0.000   5.139
   35        1.596   3.552   0.000   5.147
   36        1.595   3.562   0.000   5.157
   37        1.590   3.592   0.000   5.182
   38        1.590   3.592   0.000   5.182
   39        1.599   3.537   0.000   5.136
   40        1.604   3.523   0.000   5.127
   41        1.600   3.541   0.000   5.140
   42        1.600   3.541   0.000   5.140
   43        1.595   3.562   0.000   5.157
   44        1.596   3.552   0.000   5.147
   45        1.596   3.557   0.000   5.153
   46        1.596   3.557   0.000   5.153
   47        1.604   3.523   0.000   5.127
   48        1.599   3.537   0.000   5.136
   49        0.976   1.145   0.373   2.494
   50        0.966   1.106   0.359   2.432
   51        0.971   1.148   0.382   2.502
   52        0.962   1.116   0.369   2.447
   53        0.976   1.145   0.373   2.494
   54        0.969   1.134   0.374   2.477
   55        0.971   1.148   0.382   2.502
   56        0.974   1.144   0.372   2.490
   57        0.071   0.129   0.000   0.200
   58        0.071   0.133   0.000   0.205
   59        0.056   0.102   0.000   0.158
   60        0.058   0.105   0.000   0.163
   61        0.071   0.129   0.000   0.200
   62        0.071   0.133   0.000   0.205
   63        0.056   0.101   0.000   0.157
   64        0.064   0.115   0.000   0.179
   65        0.061   0.111   0.000   0.171
   66        0.061   0.112   0.000   0.173
   67        0.056   0.101   0.000   0.157
   68        0.064   0.115   0.000   0.179
   69        0.061   0.111   0.000   0.171
   70        0.061   0.112   0.000   0.173
   71        0.056   0.102   0.000   0.158
   72        0.058   0.105   0.000   0.163
   73        0.062   0.110   0.000   0.172
   74        0.060   0.107   0.000   0.167
   75        0.068   0.126   0.000   0.195
   76        0.060   0.107   0.000   0.167
   77        0.068   0.126   0.000   0.195
   78        0.060   0.107   0.000   0.167
   79        0.062   0.110   0.000   0.172
   80        0.060   0.107   0.000   0.167
--------------------------------------------------
tot         85.917 182.110   2.986 271.013
 
    CHARGE:  cpu time    0.2220: real time    0.2221
    FORLOC:  cpu time    0.0569: real time    0.0569
    FORNL :  cpu time    1.4267: real time    1.4272
    STRESS:  cpu time    7.0472: real time    7.0528
    FORCOR:  cpu time    0.1678: real time    0.1679
    FORHAR:  cpu time    0.0814: real time    0.0814
    MIXING:  cpu time    0.0041: real time    0.0041
    OFIELD:  cpu time    0.0000: real time    0.0000

  FORCE on cell =-STRESS in cart. coord.  units (eV):
  Direction    XX          YY          ZZ          XY          YZ          ZX
  --------------------------------------------------------------------------------------
  Alpha Z   310.04809   310.04809   310.04809
  Ewald   -5105.56273 -5450.08182 -4855.61757    -0.00000    -0.00000    22.72171
  Hartree  1544.95406  1337.70382  1692.53807    -0.00000     0.00000     8.09436
  E(xc)   -1403.68950 -1403.59546 -1405.06098     0.00000     0.00000     0.16868
  Local   -4339.77994 -3803.16289 -4719.80993    -0.00000     0.00000   -32.38269
  n-local  4204.11422  4200.77017  4209.62417    -0.00000     0.00000     0.15221
  augment  -980.06802  -981.09627  -979.49628    -0.00000    -0.00000    -0.09012
  Kinetic  5770.96076  5792.50575  5748.47785     0.00001     0.00000     1.44525
  Fock        0.00000     0.00000     0.00000     0.00000     0.00000     0.00000
  -------------------------------------------------------------------------------------
  Total       0.97695     3.09139     0.70343     0.00000     0.00000     0.10938
  in kB       0.84103     2.66129     0.60556     0.00000     0.00000     0.09417
  external pressure =        1.37 kB  Pullay stress =        0.00 kB


 VOLUME and BASIS-vectors are now :
 -----------------------------------------------------------------------------
  energy-cutoff  :      520.00
  volume of cell :     1861.11
      direct lattice vectors                 reciprocal lattice vectors
    13.459017910  0.000000000 -0.273085008     0.074898101  0.000000000  0.029495859
     0.000000000 11.456071877  0.000000000     0.000000000  0.087289955  0.000000000
    -4.791777054  0.000000000 12.167640179     0.001680979  0.000000000  0.082847197

  length of vectors
    13.461788088 11.456071877 13.077178399     0.080496777  0.087289955  0.082864248


 FORCES acting on ions
    electron-ion (+dipol)            ewald-force                    non-local-force                 convergence-correction
 -----------------------------------------------------------------------------------------------
   0.142E+02 0.709E+01 0.549E+02   -.144E+02 -.687E+01 -.564E+02   0.158E+00 -.217E+00 0.143E+01   -.200E-02 -.274E-02 0.535E-02
   -.142E+02 0.709E+01 -.549E+02   0.144E+02 -.687E+01 0.564E+02   -.158E+00 -.217E+00 -.143E+01   0.200E-02 -.274E-02 -.535E-02
   0.218E+02 -.724E+02 0.135E+01   -.228E+02 0.746E+02 -.296E+01   0.107E+01 -.213E+01 0.161E+01   -.656E-03 0.129E-02 0.513E-03
   -.218E+02 -.724E+02 -.135E+01   0.228E+02 0.746E+02 0.296E+01   -.107E+01 -.213E+01 -.161E+01   0.656E-03 0.129E-02 -.513E-03
   -.406E+02 -.417E+02 0.355E+01   0.414E+02 0.436E+02 -.273E+01   -.814E+00 -.183E+01 -.812E+00   -.190E-02 0.121E-02 0.838E-03
   -.325E+02 -.386E+02 0.274E+02   0.335E+02 0.395E+02 -.288E+02   -.998E+00 -.928E+00 0.146E+01   0.190E-02 0.393E-02 0.140E-02
   0.225E+02 0.764E+02 -.442E+01   -.237E+02 -.785E+02 0.359E+01   0.113E+01 0.212E+01 0.829E+00   0.300E-02 0.797E-03 0.295E-02
   -.252E+02 0.516E+02 0.162E+02   0.261E+02 -.540E+02 -.149E+02   -.848E+00 0.231E+01 -.123E+01   0.287E-03 0.267E-02 -.177E-02
   -.184E+02 -.453E+02 -.260E+01   0.192E+02 0.471E+02 0.348E+01   -.730E+00 -.178E+01 -.878E+00   -.301E-02 -.337E-02 -.200E-03
   0.184E+02 -.453E+02 0.260E+01   -.192E+02 0.471E+02 -.348E+01   0.730E+00 -.178E+01 0.878E+00   0.301E-02 -.337E-02 0.200E-03
   0.217E+02 0.263E+02 -.688E+01   -.222E+02 -.274E+02 0.667E+01   0.484E+00 0.107E+01 0.221E+00   0.450E-03 -.218E-02 -.282E-02
   -.217E+02 0.263E+02 0.688E+01   0.222E+02 -.274E+02 -.667E+01   -.484E+00 0.107E+01 -.221E+00   -.450E-03 -.218E-02 0.282E-02
   -.266E+02 -.402E+02 0.397E+01   0.278E+02 0.417E+02 -.352E+01   -.119E+01 -.159E+01 -.454E+00   0.220E-03 0.633E-03 -.156E-02
   0.195E+02 -.425E+02 -.147E+02   -.205E+02 0.445E+02 0.139E+02   0.986E+00 -.198E+01 0.786E+00   0.280E-02 0.166E-02 0.201E-02
   0.241E+02 0.588E+02 0.103E+01   -.252E+02 -.611E+02 -.164E+01   0.107E+01 0.229E+01 0.610E+00   0.232E-02 -.190E-02 0.873E-03
   -.153E+02 0.471E+02 -.246E+01   0.160E+02 -.486E+02 0.329E+01   -.775E+00 0.151E+01 -.832E+00   0.202E-02 -.816E-03 0.117E-02
   -.249E+02 -.490E+02 0.733E+01   0.259E+02 0.506E+02 -.645E+01   -.988E+00 -.156E+01 -.883E+00   0.441E-03 0.152E-02 0.659E-03
   0.249E+02 -.490E+02 -.732E+01   -.259E+02 0.506E+02 0.645E+01   0.988E+00 -.156E+01 0.883E+00   -.441E-03 0.152E-02 -.659E-03
   0.185E+02 0.360E+02 -.706E+01   -.193E+02 -.374E+02 0.644E+01   0.785E+00 0.146E+01 0.623E+00   -.519E-03 -.121E-03 0.928E-03
   -.185E+02 0.360E+02 0.706E+01   0.193E+02 -.374E+02 -.644E+01   -.785E+00 0.146E+01 -.623E+00   0.519E-03 -.121E-03 -.928E-03
   0.325E+02 -.386E+02 -.274E+02   -.335E+02 0.395E+02 0.288E+02   0.998E+00 -.928E+00 -.146E+01   -.190E-02 0.393E-02 -.140E-02
   0.406E+02 -.417E+02 -.354E+01   -.414E+02 0.436E+02 0.273E+01   0.814E+00 -.183E+01 0.812E+00   0.190E-02 0.121E-02 -.838E-03
   0.252E+02 0.516E+02 -.162E+02   -.261E+02 -.540E+02 0.149E+02   0.848E+00 0.231E+01 0.123E+01   -.287E-03 0.267E-02 0.177E-02
   -.225E+02 0.764E+02 0.442E+01   0.237E+02 -.785E+02 -.359E+01   -.113E+01 0.212E+01 -.829E+00   -.300E-02 0.797E-03 -.295E-02
   -.252E+02 -.369E+02 0.540E+01   0.255E+02 0.384E+02 -.487E+01   -.292E+00 -.147E+01 -.523E+00   -.477E-03 0.588E-03 -.131E-02
   0.252E+02 -.369E+02 -.540E+01   -.255E+02 0.384E+02 0.487E+01   0.292E+00 -.147E+01 0.523E+00   0.477E-03 0.588E-03 0.131E-02
   0.245E+02 0.291E+02 -.745E+01   -.254E+02 -.303E+02 0.651E+01   0.853E+00 0.119E+01 0.946E+00   -.169E-02 -.125E-02 -.483E-03
   -.245E+02 0.291E+02 0.745E+01   0.254E+02 -.303E+02 -.651E+01   -.853E+00 0.119E+01 -.946E+00   0.169E-02 -.125E-02 0.483E-03
   -.195E+02 -.425E+02 0.147E+02   0.205E+02 0.445E+02 -.139E+02   -.986E+00 -.198E+01 -.786E+00   -.280E-02 0.166E-02 -.201E-02
   0.266E+02 -.402E+02 -.397E+01   -.278E+02 0.417E+02 0.352E+01   0.119E+01 -.159E+01 0.454E+00   -.220E-03 0.633E-03 0.156E-02
   0.153E+02 0.471E+02 0.246E+01   -.160E+02 -.486E+02 -.329E+01   0.775E+00 0.151E+01 0.832E+00   -.202E-02 -.816E-03 -.117E-02
   -.241E+02 0.588E+02 -.103E+01   0.252E+02 -.611E+02 0.164E+01   -.107E+01 0.229E+01 -.610E+00   -.232E-02 -.190E-02 -.873E-03
   -.533E+02 -.123E+02 0.628E+00   0.559E+02 0.123E+02 -.109E+01   -.262E+01 -.314E-01 0.468E+00   -.115E-03 -.233E-02 -.339E-02
   0.533E+02 -.123E+02 -.628E+00   -.559E+02 0.123E+02 0.109E+01   0.262E+01 -.314E-01 -.468E+00   0.115E-03 -.233E-02 0.339E-02
   -.442E+02 0.756E+01 -.180E+02   0.457E+02 -.779E+01 0.173E+02   -.152E+01 0.234E+00 0.721E+00   0.182E-03 0.118E-02 0.163E-02
   0.385E+02 0.754E+01 0.131E+02   -.399E+02 -.725E+01 -.128E+02   0.144E+01 -.298E+00 -.329E+00   0.340E-02 0.327E-02 0.956E-03
   0.866E+01 -.308E+02 -.573E+02   -.868E+01 0.308E+02 0.589E+02   0.274E-01 -.200E-01 -.156E+01   -.280E-02 -.390E-02 -.229E-02
   -.866E+01 -.308E+02 0.573E+02   0.868E+01 0.308E+02 -.589E+02   -.274E-01 -.200E-01 0.156E+01   0.280E-02 -.390E-02 0.229E-02
   -.562E+02 0.537E+01 -.172E+02   0.589E+02 -.500E+01 0.164E+02   -.264E+01 -.366E+00 0.744E+00   -.180E-02 0.148E-03 0.936E-03
   0.159E+02 0.637E+02 -.213E+02   -.167E+02 -.653E+02 0.227E+02   0.768E+00 0.159E+01 -.138E+01   0.229E-02 0.245E-02 0.577E-03
   -.546E+02 -.487E+01 -.141E+02   0.573E+02 0.472E+01 0.138E+02   -.273E+01 0.153E+00 0.298E+00   -.226E-02 -.535E-03 0.375E-03
   0.546E+02 -.487E+01 0.141E+02   -.573E+02 0.472E+01 -.138E+02   0.273E+01 0.153E+00 -.298E+00   0.226E-02 -.535E-03 -.375E-03
   -.385E+02 0.754E+01 -.131E+02   0.399E+02 -.725E+01 0.128E+02   -.144E+01 -.298E+00 0.329E+00   -.340E-02 0.327E-02 -.956E-03
   0.442E+02 0.756E+01 0.180E+02   -.457E+02 -.779E+01 -.173E+02   0.152E+01 0.234E+00 -.721E+00   -.182E-03 0.118E-02 -.163E-02
   -.539E+02 -.849E+01 -.244E+02   0.557E+02 0.846E+01 0.239E+02   -.178E+01 0.304E-01 0.410E+00   -.129E-02 -.130E-02 -.711E-03
   0.539E+02 -.849E+01 0.244E+02   -.557E+02 0.846E+01 -.239E+02   0.178E+01 0.304E-01 -.410E+00   0.129E-02 -.130E-02 0.711E-03
   -.159E+02 0.637E+02 0.213E+02   0.167E+02 -.653E+02 -.227E+02   -.768E+00 0.159E+01 0.138E+01   -.229E-02 0.245E-02 -.577E-03
   0.562E+02 0.537E+01 0.172E+02   -.589E+02 -.500E+01 -.164E+02   0.264E+01 -.366E+00 -.744E+00   0.180E-02 0.148E-03 -.936E-03
   -.771E+01 0.963E+01 0.131E+01   0.931E+01 -.106E+02 -.121E+01   -.161E+01 0.964E+00 -.936E-01   0.450E-03 0.266E-03 0.560E-04
   -.492E-06 -.222E+01 -.933E-06   -.359E-05 0.339E+01 -.687E-05   0.000E+00 -.117E+01 0.000E+00   -.495E-09 -.602E-03 -.166E-08
   -.290E+01 0.336E+01 -.369E+01   0.257E+01 -.351E+01 0.275E+01   0.341E+00 0.144E+00 0.945E+00   0.484E-03 0.759E-03 0.431E-04
   0.642E-06 -.275E+01 0.980E-06   0.470E-05 0.314E+01 0.720E-05   0.847E-21 -.390E+00 0.000E+00   -.371E-09 -.579E-03 0.231E-09
   0.771E+01 0.963E+01 -.131E+01   -.931E+01 -.106E+02 0.121E+01   0.161E+01 0.964E+00 0.936E-01   -.450E-03 0.266E-03 -.560E-04
   -.498E-06 0.280E+01 -.894E-06   -.365E-05 -.261E+01 -.656E-05   0.000E+00 -.203E+00 0.000E+00   0.912E-09 0.165E-03 -.246E-09
   0.290E+01 0.336E+01 0.369E+01   -.257E+01 -.351E+01 -.275E+01   -.341E+00 0.144E+00 -.945E+00   -.484E-03 0.759E-03 -.431E-04
   0.217E-07 -.125E+02 0.146E-05   0.124E-06 0.138E+02 0.109E-04   0.000E+00 -.134E+01 0.000E+00   0.489E-09 0.803E-03 -.761E-09
   0.461E+00 -.881E+01 0.277E+01   -.864E-01 0.791E+01 -.344E+01   -.375E+00 0.898E+00 0.676E+00   0.102E-03 -.299E-03 0.379E-04
   0.320E+01 0.469E+01 -.361E+00   -.272E+01 -.350E+01 0.569E+00   -.478E+00 -.119E+01 -.208E+00   -.379E-05 0.322E-04 0.271E-04
   -.309E+01 -.405E+01 -.470E+01   0.296E+01 0.395E+01 0.462E+01   0.134E+00 0.954E-01 0.774E-01   0.782E-04 0.139E-03 0.236E-04
   -.826E+00 0.105E+02 -.119E+01   0.779E+00 -.980E+01 0.120E+01   0.498E-01 -.692E+00 -.105E-01   0.171E-03 0.882E-04 0.132E-03
   -.461E+00 -.881E+01 -.277E+01   0.864E-01 0.791E+01 0.344E+01   0.375E+00 0.898E+00 -.676E+00   -.102E-03 -.299E-03 -.380E-04
   -.320E+01 0.469E+01 0.361E+00   0.272E+01 -.350E+01 -.569E+00   0.478E+00 -.119E+01 0.208E+00   0.379E-05 0.322E-04 -.271E-04
   0.170E+01 -.538E+01 -.349E+01   -.137E+01 0.503E+01 0.305E+01   -.330E+00 0.353E+00 0.441E+00   -.191E-04 0.956E-04 0.769E-05
   -.589E+00 -.101E+00 -.816E-02   0.592E-01 -.707E+00 -.295E+00   0.529E+00 0.811E+00 0.306E+00   0.988E-04 -.955E-05 0.138E-03
   -.132E+01 -.807E+01 0.854E+00   0.138E+01 0.741E+01 -.771E+00   -.592E-01 0.661E+00 -.831E-01   -.411E-04 0.594E-05 0.783E-04
   0.372E+00 0.815E+01 -.671E+00   -.397E+00 -.737E+01 0.658E+00   0.269E-01 -.784E+00 0.129E-01   0.443E-04 -.105E-03 -.339E-04
   -.170E+01 -.538E+01 0.349E+01   0.137E+01 0.503E+01 -.305E+01   0.330E+00 0.353E+00 -.441E+00   0.191E-04 0.956E-04 -.769E-05
   0.589E+00 -.101E+00 0.816E-02   -.592E-01 -.707E+00 0.295E+00   -.529E+00 0.811E+00 -.306E+00   -.988E-04 -.955E-05 -.138E-03
   0.132E+01 -.807E+01 -.854E+00   -.138E+01 0.741E+01 0.771E+00   0.592E-01 0.661E+00 0.831E-01   0.411E-04 0.594E-05 -.783E-04
   -.372E+00 0.815E+01 0.671E+00   0.397E+00 -.737E+01 -.658E+00   -.269E-01 -.784E+00 -.129E-01   -.443E-04 -.105E-03 0.339E-04
   0.309E+01 -.405E+01 0.470E+01   -.296E+01 0.395E+01 -.462E+01   -.134E+00 0.954E-01 -.774E-01   -.782E-04 0.139E-03 -.236E-04
   0.826E+00 0.105E+02 0.119E+01   -.779E+00 -.980E+01 -.120E+01   -.498E-01 -.692E+00 0.105E-01   -.171E-03 0.882E-04 -.132E-03
   0.463E+01 0.444E+01 0.442E+01   -.494E+01 -.335E+01 -.455E+01   0.319E+00 -.109E+01 0.139E+00   -.785E-04 -.184E-03 0.124E-03
   -.275E+01 0.627E+00 -.459E+00   0.266E+01 -.677E+00 0.348E+00   0.853E-01 0.499E-01 0.111E+00   -.201E-04 0.866E-04 0.323E-04
   -.549E+01 -.176E+01 -.416E+00   0.447E+01 0.182E+01 0.777E+00   0.102E+01 -.527E-01 -.360E+00   -.595E-04 -.243E-03 0.280E-04
   0.275E+01 0.627E+00 0.459E+00   -.266E+01 -.677E+00 -.348E+00   -.853E-01 0.499E-01 -.111E+00   0.201E-04 0.866E-04 -.323E-04
   0.549E+01 -.176E+01 0.416E+00   -.447E+01 0.182E+01 -.777E+00   -.102E+01 -.527E-01 0.360E+00   0.595E-04 -.243E-03 -.280E-04
   0.912E+00 0.198E+01 0.360E+00   -.781E+00 -.229E+01 -.209E-01   -.130E+00 0.313E+00 -.338E+00   0.329E-04 0.190E-03 -.231E-04
   -.463E+01 0.444E+01 -.442E+01   0.494E+01 -.335E+01 0.455E+01   -.319E+00 -.109E+01 -.139E+00   0.785E-04 -.184E-03 -.124E-03
   -.912E+00 0.198E+01 -.360E+00   0.781E+00 -.229E+01 0.209E-01   0.130E+00 0.313E+00 0.338E+00   -.329E-04 0.190E-03 0.231E-04
 -----------------------------------------------------------------------------------------------
   0.274E-03 0.261E+01 -.696E-03   -.533E-13 -.826E-13 -.788E-13   -.122E-14 -.262E+01 0.111E-15   -.990E-09 0.322E-02 -.424E-08
 
 
 POSITION                                       TOTAL-FORCE (eV/Angst)
 -----------------------------------------------------------------------------------
      1.01075      1.91661      1.91058        -0.004314     -0.001456     -0.002502
      7.65649      1.91661      9.98398         0.004314     -0.001456      0.002502
      7.77114      9.34144     10.18646        -0.000593     -0.001698      0.000051
      0.89610      9.34144      1.70809         0.000593     -0.001698     -0.000051
      4.19530      7.46030      1.64673         0.000053      0.000455      0.001844
     -2.65512      7.54875     10.69890        -0.001003     -0.000270     -0.000656
     -2.33467      4.07506     10.45092        -0.002271      0.000067     -0.003709
      4.22632      3.97448      1.60101         0.002603     -0.003926      0.003834
     -1.49325      1.72092      7.74490        -0.001724     -0.004396     -0.001131
     10.16049      1.72092      4.14966         0.001724     -0.004396      0.001131
     10.07857      9.61329      4.15696        -0.000342     -0.000930      0.000077
     -1.41133      9.61329      7.73760         0.000342     -0.000930     -0.000077
      2.05208      7.46659      7.58706        -0.001217     -0.002976      0.000145
     -0.04094      7.40019      4.47259        -0.002488     -0.001513     -0.001392
     -0.08939      3.92484      4.63826         0.000100      0.004412      0.003974
      1.88092      4.01625      7.77094        -0.002400      0.005192     -0.000713
      7.68208      1.76094      1.49665        -0.000535     -0.004071     -0.003545
      0.98516      1.76094     10.39791         0.000535     -0.004071      0.003545
      1.04725      9.71628     10.39233         0.001192      0.004920      0.002402
      7.61999      9.71628      1.50223        -0.001192      0.004920     -0.002402
     11.32236      7.54875      1.19565         0.001003     -0.000270      0.000656
      4.47194      7.46030     10.24782        -0.000053      0.000455     -0.001844
      4.44093      3.97448     10.29355        -0.002603     -0.003926     -0.003834
     11.00191      4.07506      1.44364         0.002271      0.000067      0.003709
      5.08047      1.81274      7.57702        -0.002752     -0.002651     -0.002619
      3.58677      1.81274      4.31753         0.002752     -0.002651      0.002619
      3.37651      9.75902      4.19756         0.002830      0.007744      0.004256
      5.29073      9.75902      7.69700        -0.002830      0.007744     -0.004256
      8.70819      7.40019      7.42196         0.002488     -0.001513      0.001392
      6.61516      7.46659      4.30750         0.001217     -0.002976     -0.000145
      6.78632      4.01625      4.12361         0.002400      0.005192      0.000713
      8.75663      3.92484      7.25629        -0.000100      0.004412     -0.003974
     -0.33377     11.32067      4.64995         0.001732     -0.003884      0.003604
      9.00101     11.32067      7.24461        -0.001732     -0.003884     -0.003604
      2.98605      5.62346      4.51304        -0.000594     -0.000867     -0.000829
     -1.12445      5.88860      7.61695        -0.001441     -0.001023      0.002229
     -2.53967     11.32780     10.68849         0.000798      0.001707      0.005622
     11.20691     11.32780      1.20606        -0.000798      0.001707     -0.005622
      0.60144      5.98230     10.66487         0.001899      0.001500     -0.000070
      1.11886      5.82346      1.32569        -0.002066     -0.003897      0.004281
      6.45267     11.37231      4.59084         0.004282      0.000147      0.000469
      2.21457     11.37231      7.30371        -0.004282      0.000147     -0.000469
      9.79169      5.88860      4.27761         0.001441     -0.001023     -0.002229
      5.68119      5.62346      7.38151         0.000594     -0.000867      0.000829
      4.01379      0.04085     10.53361         0.000608      0.002753     -0.000624
      4.65346      0.04085      1.36095        -0.000608      0.002753      0.000624
      7.54838      5.82346     10.56886         0.002066     -0.003897     -0.004281
      8.06580      5.98230      1.22968        -0.001899      0.001500      0.000070
      3.41162      5.68819     -0.00891         0.001240      0.007129      0.000707
     -2.39589      0.00329      6.08382        -0.000000     -0.000136      0.000000
      0.95247      5.70913      6.07250         0.004813     -0.004436      0.002146
      6.72951      0.04220     -0.13654        -0.000000      0.002891      0.000000
      5.25562      5.68819     11.90347        -0.001240      0.007129     -0.000707
      4.33362     11.40208      5.94728        -0.000000     -0.005883      0.000000
      7.71477      5.70913      5.82205        -0.004813     -0.004436     -0.002146
      0.00000      7.78568     -0.00000        -0.000000      0.008468      0.000000
     12.36255      1.39717      2.48298        -0.000174     -0.001046      0.005694
     -3.43307      9.87028      9.15719        -0.002492     -0.005268     -0.000415
      2.11019      7.61650      3.14906        -0.000561      0.001011     -0.000497
     -0.20015      4.13556      9.15925         0.002889      0.003066      0.003780
     -3.69531      1.39717      9.41157         0.000174     -0.001046     -0.005694
     12.10031      9.87028      2.73736         0.002492     -0.005268      0.000415
     -0.00940      7.76422      8.86633         0.001074      0.002113      0.000391
      1.99507      3.48253      3.28201        -0.000502      0.002540      0.003096
      5.72543      1.65048      3.02371         0.002135      0.003612     -0.000136
      3.11718      9.80773      8.97942         0.001670     -0.002036      0.000380
      8.67664      7.76422      3.02822        -0.001074      0.002113     -0.000391
      6.67218      3.48253      8.61254         0.000502      0.002540     -0.003096
      2.94182      1.65048      8.87085        -0.002135      0.003612      0.000136
      5.55006      9.80773      2.91514        -0.001670     -0.002036     -0.000380
      6.55705      7.61650      8.74549         0.000561      0.001011      0.000497
      8.86739      4.13556      2.73531        -0.002889      0.003066     -0.003780
      2.45240      0.29951      2.63237         0.000252     -0.001647      0.001921
      5.20545      5.70065      3.12545        -0.001258      0.000581      0.000495
     -0.67067      0.01254      9.35540         0.000171     -0.000344      0.000193
      3.46179      5.70065      8.76910         0.001258      0.000581     -0.000495
      9.33791      0.01254      2.53916        -0.000171     -0.000344     -0.000193
     12.04637      5.57405      3.16728         0.001009     -0.003285      0.001118
      6.21484      0.29951      9.26218        -0.000252     -0.001647     -0.001921
     -3.37913      5.57405      8.72727        -0.001009     -0.003285     -0.001118
 -----------------------------------------------------------------------------------
    total drift:                                0.000274     -0.000084     -0.000696


--------------------------------------------------------------------------------------------------------



  FREE ENERGIE OF THE ION-ELECTRON SYSTEM (eV)
  ---------------------------------------------------
  free  energy   TOTEN  =      -274.09804755 eV

  energy  without entropy=     -274.09804755  energy(sigma->0) =     -274.09804755
 
 d Force = 0.1499597E-03[ 0.682E-04, 0.232E-03]  d Energy = 0.1628683E-03-0.129E-04
 d Force =-0.4706236E+00[-0.473E+00,-0.469E+00]  d Ewald  =-0.4706232E+00-0.366E-06


--------------------------------------------------------------------------------------------------------


    POTLOK:  cpu time    0.2910: real time    0.2911


--------------------------------------------------------------------------------------------------------




--------------------------------------------------------------------------------------------------------


    WAVPRE:  cpu time    0.0683: real time    0.0709
    FEWALD:  cpu time    0.0017: real time    0.0017
    ORTHCH:  cpu time    0.9016: real time    0.9022
     LOOP+:  cpu time   40.5849: real time   40.6408


--------------------------------------- Iteration     16(   1)  ---------------------------------------


    POTLOK:  cpu time    0.1322: real time    0.1336
    SETDIJ:  cpu time    0.1579: real time    0.1579
     EDDAV:  cpu time    5.1394: real time    5.1459
       DOS:  cpu time    0.0002: real time    0.0002
    CHARGE:  cpu time    0.2229: real time    0.2230
    MIXING:  cpu time    0.0044: real time    0.0044
    --------------------------------------------
      LOOP:  cpu time    5.6571: real time    5.6651

 eigenvalue-minimisations  :   480
 total energy-change (2. order) :-0.3960761E-04  (-0.1666554E-02)
 number of electron     384.0000001 magnetization 
 augmentation part      -49.4174748 magnetization 

 Broyden mixing:
  rms(total) = 0.23909E-02    rms(broyden)= 0.23906E-02
  rms(prec ) = 0.28746E-02
  weight for this iteration     100.00

 Free energy of the ion-electron system (eV)
  ---------------------------------------------------
  alpha Z        PSCENC =       310.04809462
  Ewald energy   TEWEN  =    -15411.13921082
  -Hartree energ DENC   =     -4575.23865927
  -exchange      EXHF   =         0.00000000
  -V(xc)+E(xc)   XCENC  =       447.05727943
  PAW double counting   =     11244.48928071   -10653.78195281
  entropy T*S    EENTRO =        -0.00000000
  eigenvalues    EBANDS =     -1859.79207217
  atomic energy  EATOM  =     20224.25915541
  Solvation  Ediel_sol  =         0.00000000
  ---------------------------------------------------
  free energy    TOTEN  =      -274.09808490 eV

  energy without entropy =     -274.09808490  energy(sigma->0) =     -274.09808490


--------------------------------------------------------------------------------------------------------




--------------------------------------- Iteration     16(   2)  ---------------------------------------


    POTLOK:  cpu time    0.1307: real time    0.1352
    SETDIJ:  cpu time    0.1578: real time    0.1578
     EDDAV:  cpu time    5.8176: real time    5.8213
       DOS:  cpu time    0.0003: real time    0.0003
    CHARGE:  cpu time    0.2225: real time    0.2240
    MIXING:  cpu time    0.0043: real time    0.0043
    --------------------------------------------
      LOOP:  cpu time    6.3331: real time    6.3429

 eigenvalue-minimisations  :   560
 total energy-change (2. order) :-0.7039325E-04  (-0.8090075E-04)
 number of electron     384.0000001 magnetization 
 augmentation part      -49.4175227 magnetization 

 Broyden mixing:
  rms(total) = 0.98773E-03    rms(broyden)= 0.98692E-03
  rms(prec ) = 0.14021E-02
  weight for this iteration     100.00

 eigenvalues of (default mixing * dielectric matrix)
  average eigenvalue GAMMA=   0.8563
  0.8563

 Free energy of the ion-electron system (eV)
  ---------------------------------------------------
  alpha Z        PSCENC =       310.04809462
  Ewald energy   TEWEN  =    -15411.13921082
  -Hartree energ DENC   =     -4575.23968019
  -exchange      EXHF   =         0.00000000
  -V(xc)+E(xc)   XCENC  =       447.05735500
  PAW double counting   =     11244.50415382   -10653.79701204
  entropy T*S    EENTRO =        -0.00000000
  eigenvalues    EBANDS =     -1859.79101109
  atomic energy  EATOM  =     20224.25915541
  Solvation  Ediel_sol  =         0.00000000
  ---------------------------------------------------
  free energy    TOTEN  =      -274.09815530 eV

  energy without entropy =     -274.09815530  energy(sigma->0) =     -274.09815530


--------------------------------------------------------------------------------------------------------




--------------------------------------- Iteration     16(   3)  ---------------------------------------


    POTLOK:  cpu time    0.1306: real time    0.1346
    SETDIJ:  cpu time    0.1580: real time    0.1580
     EDDAV:  cpu time    4.8316: real time    4.8393
       DOS:  cpu time    0.0002: real time    0.0002
    --------------------------------------------
      LOOP:  cpu time    5.1204: real time    5.1322

 eigenvalue-minimisations  :   440
 total energy-change (2. order) : 0.2128676E-05  (-0.2050654E-05)
 number of electron     384.0000001 magnetization 
 augmentation part      -49.4175227 magnetization 

 Free energy of the ion-electron system (eV)
  ---------------------------------------------------
  alpha Z        PSCENC =       310.04809462
  Ewald energy   TEWEN  =    -15411.13921082
  -Hartree energ DENC   =     -4575.24056992
  -exchange      EXHF   =         0.00000000
  -V(xc)+E(xc)   XCENC  =       447.05738644
  PAW double counting   =     11244.51263307   -10653.80560291
  entropy T*S    EENTRO =        -0.00000000
  eigenvalues    EBANDS =     -1859.79003905
  atomic energy  EATOM  =     20224.25915541
  Solvation  Ediel_sol  =         0.00000000
  ---------------------------------------------------
  free energy    TOTEN  =      -274.09815317 eV

  energy without entropy =     -274.09815317  energy(sigma->0) =     -274.09815317


--------------------------------------------------------------------------------------------------------




 average (electrostatic) potential at core
  the test charge radii are     0.9406  1.4837  0.9748
  (the norm of the test charge is              1.0000)
       1 -92.6784       2 -92.6784       3 -94.2188       4 -94.2188       5 -94.0888
       6 -94.7273       7 -94.1117       8 -94.0440       9 -93.5679      10 -93.5679
      11 -93.6645      12 -93.6645      13 -94.1627      14 -94.0185      15 -94.0130
      16 -94.1641      17 -93.9890      18 -93.9890      19 -93.9812      20 -93.9812
      21 -94.7273      22 -94.0888      23 -94.0440      24 -94.1116      25 -93.9996
      26 -93.9995      27 -94.0196      28 -94.0196      29 -94.0185      30 -94.1626
      31 -94.1641      32 -94.0130      33 -93.7022      34 -93.7023      35 -94.0651
      36 -94.1315      37 -92.5394      38 -92.5394      39 -94.0696      40 -94.6538
      41 -93.9840      42 -93.9841      43 -94.1315      44 -94.0651      45 -94.0842
      46 -94.0842      47 -94.6538      48 -94.0696      49 -41.9796      50 -41.5378
      51 -41.8885      52 -41.9126      53 -41.9796      54 -41.8104      55 -41.8885
      56 -42.2078      57 -27.8228      58 -28.1138      59 -28.7408      60 -28.7693
      61 -27.8229      62 -28.1138      63 -28.8960      64 -28.3762      65 -28.6615
      66 -28.6641      67 -28.8960      68 -28.3762      69 -28.6615      70 -28.6641
      71 -28.7408      72 -28.7693      73 -28.5149      74 -28.7531      75 -27.9708
      76 -28.7531      77 -27.9707      78 -28.8446      79 -28.5149      80 -28.8446
 
 
 
 E-fermi :   0.4227     XC(G=0):  -7.8727     alpha+bet : -7.9187


 k-point     1 :       0.0000    0.0000    0.0000
  band No.  band energies     occupation 
      1     -14.6439      2.00000
      2     -14.3818      2.00000
      3     -14.1658      2.00000
      4     -14.1430      2.00000
      5     -14.0817      2.00000
      6     -14.0598      2.00000
      7     -14.0437      2.00000
      8     -13.9214      2.00000
      9     -13.8708      2.00000
     10     -13.8341      2.00000
     11     -13.8064      2.00000
     12     -13.7724      2.00000
     13     -13.7458      2.00000
     14     -13.7310      2.00000
     15     -13.7208      2.00000
     16     -13.6808      2.00000
     17     -13.6772      2.00000
     18     -13.6594      2.00000
     19     -13.6475      2.00000
     20     -13.6009      2.00000
     21     -13.5965      2.00000
     22     -13.5839      2.00000
     23     -13.5802      2.00000
     24     -13.5555      2.00000
     25     -13.5453      2.00000
     26     -13.4995      2.00000
     27     -13.4926      2.00000
     28     -13.4591      2.00000
     29     -13.4531      2.00000
     30     -13.4450      2.00000
     31     -13.4117      2.00000
     32     -13.4081      2.00000
     33     -13.4021      2.00000
     34     -13.3811      2.00000
     35     -13.3584      2.00000
     36     -13.3430      2.00000
     37     -13.3210      2.00000
     38     -13.3029      2.00000
     39     -13.2869      2.00000
     40     -13.2784      2.00000
     41     -13.1725      2.00000
     42     -13.1189      2.00000
     43     -12.9589      2.00000
     44     -12.9299      2.00000
     45     -12.2863      2.00000
     46     -12.2637      2.00000
     47     -12.1463      2.00000
     48     -12.1414      2.00000
     49      -5.5945      2.00000
     50      -5.3090      2.00000
     51      -5.2582      2.00000
     52      -5.1492      2.00000
     53      -5.1229      2.00000
     54      -5.0938      2.00000
     55      -4.9936      2.00000
     56      -4.6689      2.00000
     57      -3.8641      2.00000
     58      -3.6779      2.00000
     59      -3.6763      2.00000
     60      -3.4808      2.00000
     61      -3.4238      2.00000
     62      -3.3916      2.00000
     63      -3.3909      2.00000
     64      -3.3662      2.00000
     65      -3.2690      2.00000
     66      -3.2494      2.00000
     67      -3.2281      2.00000
     68      -3.2276      2.00000
     69      -3.1792      2.00000
     70      -3.0649      2.00000
     71      -3.0417      2.00000
     72      -3.0107      2.00000
     73      -3.0054      2.00000
     74      -2.9714      2.00000
     75      -2.9588      2.00000
     76      -2.8975      2.00000
     77      -2.8229      2.00000
     78      -2.7614      2.00000
     79      -2.7408      2.00000
     80      -2.7347      2.00000
     81      -2.6557      2.00000
     82      -2.6207      2.00000
     83      -2.6150      2.00000
     84      -2.5935      2.00000
     85      -2.5660      2.00000
     86      -2.5533      2.00000
     87      -2.5026      2.00000
     88      -2.4555      2.00000
     89      -2.4125      2.00000
     90      -2.3913      2.00000
     91      -2.3664      2.00000
     92      -2.3507      2.00000
     93      -2.3230      2.00000
     94      -2.3146      2.00000
     95      -2.3063      2.00000
     96      -2.3051      2.00000
     97      -2.2545      2.00000
     98      -2.2215      2.00000
     99      -2.2184      2.00000
    100      -2.1937      2.00000
    101      -2.1638      2.00000
    102      -2.1442      2.00000
    103      -2.1210      2.00000
    104      -2.0642      2.00000
    105      -2.0197      2.00000
    106      -2.0031      2.00000
    107      -1.9699      2.00000
    108      -1.9547      2.00000
    109      -1.9306      2.00000
    110      -1.9109      2.00000
    111      -1.9021      2.00000
    112      -1.8897      2.00000
    113      -1.8565      2.00000
    114      -1.8238      2.00000
    115      -1.8221      2.00000
    116      -1.7919      2.00000
    117      -1.7771      2.00000
    118      -1.7210      2.00000
    119      -1.7025      2.00000
    120      -1.6862      2.00000
    121      -1.6761      2.00000
    122      -1.6756      2.00000
    123      -1.6483      2.00000
    124      -1.6423      2.00000
    125      -1.6110      2.00000
    126      -1.6076      2.00000
    127      -1.5814      2.00000
    128      -1.5585      2.00000
    129      -1.5512      2.00000
    130      -1.5282      2.00000
    131      -1.5202      2.00000
    132      -1.5140      2.00000
    133      -1.4907      2.00000
    134      -1.4644      2.00000
    135      -1.4473      2.00000
    136      -1.4407      2.00000
    137      -1.4327      2.00000
    138      -1.3921      2.00000
    139      -1.3906      2.00000
    140      -1.3810      2.00000
    141      -1.3508      2.00000
    142      -1.3498      2.00000
    143      -1.3337      2.00000
    144      -1.3322      2.00000
    145      -1.3077      2.00000
    146      -1.2987      2.00000
    147      -1.2810      2.00000
    148      -1.2685      2.00000
    149      -1.2543      2.00000
    150      -1.2426      2.00000
    151      -1.2280      2.00000
    152      -1.2102      2.00000
    153      -1.1962      2.00000
    154      -1.1808      2.00000
    155      -1.1797      2.00000
    156      -1.1593      2.00000
    157      -1.1494      2.00000
    158      -1.1195      2.00000
    159      -1.0970      2.00000
    160      -1.0832      2.00000
    161      -1.0818      2.00000
    162      -1.0755      2.00000
    163      -1.0602      2.00000
    164      -1.0560      2.00000
    165      -1.0147      2.00000
    166      -0.9935      2.00000
    167      -0.9807      2.00000
    168      -0.9739      2.00000
    169      -0.9471      2.00000
    170      -0.9321      2.00000
    171      -0.9217      2.00000
    172      -0.9067      2.00000
    173      -0.8803      2.00000
    174      -0.8644      2.00000
    175      -0.8322      2.00000
    176      -0.8028      2.00000
    177      -0.7960      2.00000
    178      -0.7613      2.00000
    179      -0.7539      2.00000
    180      -0.6724      2.00000
    181      -0.6693      2.00000
    182      -0.5982      2.00000
    183      -0.5965      2.00000
    184      -0.5227      2.00000
    185      -0.3597      2.00000
    186      -0.3550      2.00000
    187      -0.3389      2.00000
    188      -0.2733      2.00000
    189      -0.2393      2.00000
    190      -0.2240      2.00000
    191      -0.1599      2.00000
    192      -0.0641      2.00000
    193       2.4860      0.00000
    194       2.8048      0.00000
    195       2.8212      0.00000
    196       2.9392      0.00000
    197       3.1351      0.00000
    198       3.1482      0.00000
    199       3.2234      0.00000
    200       3.4316      0.00000
    201       5.6804      0.00000
    202       5.8154      0.00000
    203       5.9168      0.00000
    204       5.9633      0.00000
    205       6.0659      0.00000
    206       6.0781      0.00000
    207       6.1351      0.00000
    208       6.1854      0.00000
    209       6.2664      0.00000
    210       6.3696      0.00000
    211       6.4915      0.00000
    212       6.5366      0.00000
    213       6.6334      0.00000
    214       6.6424      0.00000
    215       6.6977      0.00000
    216       6.7447      0.00000
    217       6.8238      0.00000
    218       6.8391      0.00000
    219       6.9195      0.00000
    220       6.9722      0.00000
    221       6.9914      0.00000
    222       7.0518      0.00000
    223       7.1796      0.00000
    224       7.2357      0.00000
    225       7.2688      0.00000
    226       7.3663      0.00000
    227       7.4420      0.00000
    228       7.4626      0.00000
    229       7.5428      0.00000
    230       7.5566      0.00000
    231       7.6021      0.00000
    232       7.6954      0.00000
    233       7.7847      0.00000
    234       7.8043      0.00000
    235       7.8233      0.00000
    236       7.8763      0.00000
    237       7.8859      0.00000
    238       7.9047      0.00000
    239       7.9843      0.00000
    240       8.0088      0.00000


--------------------------------------------------------------------------------------------------------


 soft charge-density along one line, spin component           1
         0         1         2         3         4         5         6         7         8         9
 total charge-density along one line
 
 pseudopotential strength for first ion, spin component:           1
 47.403  -0.016  -0.003   0.019   0.003  -0.000   0.000   0.000
 -0.016   0.019  -0.000   0.000   0.000  -0.000   0.000   0.000
 -0.003  -0.000   9.108   0.000  -0.000   0.002  -0.000   0.000
  0.019   0.000   0.000   9.105   0.000  -0.000   0.002  -0.000
  0.003   0.000  -0.000   0.000   9.109   0.000  -0.000   0.002
 -0.000  -0.000   0.002  -0.000   0.000   0.035   0.000   0.000
  0.000   0.000  -0.000   0.002  -0.000   0.000   0.035   0.000
  0.000   0.000   0.000  -0.000   0.002   0.000   0.000   0.035
 total augmentation occupancy for first ion, spin component:           1
  1.911   0.427   0.009  -0.060  -0.010   0.011  -0.066  -0.012
  0.427   0.249  -0.053   0.334   0.058   0.013  -0.099  -0.024
  0.009  -0.053   1.759  -0.002   0.003  -0.398  -0.007   0.002
 -0.060   0.334  -0.002   1.798  -0.001  -0.007  -0.329  -0.010
 -0.010   0.058   0.003  -0.001   1.750   0.002  -0.010  -0.423
  0.011   0.013  -0.398  -0.007   0.002   0.101   0.003  -0.000
 -0.066  -0.099  -0.007  -0.329  -0.010   0.003   0.078   0.006
 -0.012  -0.024   0.002  -0.010  -0.423  -0.000   0.006   0.114


------------------------ aborting loop because EDIFF is reached ----------------------------------------


 


 total charge     
 
# of ion       s       p       d       tot
------------------------------------------
    1        1.589   3.591   0.000   5.180
    2        1.589   3.591   0.000   5.180
    3        1.599   3.535   0.000   5.134
    4        1.599   3.535   0.000   5.134
    5        1.598   3.544   0.000   5.142
    6        1.603   3.527   0.000   5.130
    7        1.598   3.539   0.000   5.137
    8        1.599   3.536   0.000   5.135
    9        1.597   3.539   0.000   5.136
   10        1.597   3.539   0.000   5.136
   11        1.594   3.555   0.000   5.149
   12        1.594   3.555   0.000   5.149
   13        1.597   3.549   0.000   5.145
   14        1.598   3.544   0.000   5.143
   15        1.599   3.542   0.000   5.142
   16        1.596   3.550   0.000   5.146
   17        1.597   3.544   0.000   5.140
   18        1.597   3.544   0.000   5.140
   19        1.595   3.548   0.000   5.143
   20        1.595   3.548   0.000   5.143
   21        1.603   3.527   0.000   5.130
   22        1.598   3.544   0.000   5.142
   23        1.599   3.536   0.000   5.135
   24        1.598   3.539   0.000   5.137
   25        1.596   3.561   0.000   5.156
   26        1.596   3.561   0.000   5.156
   27        1.596   3.546   0.000   5.142
   28        1.596   3.546   0.000   5.142
   29        1.598   3.544   0.000   5.143
   30        1.597   3.549   0.000   5.145
   31        1.596   3.550   0.000   5.146
   32        1.599   3.542   0.000   5.142
   33        1.599   3.539   0.000   5.139
   34        1.599   3.539   0.000   5.139
   35        1.596   3.552   0.000   5.148
   36        1.595   3.562   0.000   5.157
   37        1.590   3.591   0.000   5.182
   38        1.590   3.591   0.000   5.182
   39        1.599   3.537   0.000   5.136
   40        1.604   3.522   0.000   5.126
   41        1.600   3.541   0.000   5.140
   42        1.600   3.541   0.000   5.140
   43        1.595   3.562   0.000   5.157
   44        1.596   3.552   0.000   5.148
   45        1.596   3.558   0.000   5.153
   46        1.596   3.558   0.000   5.153
   47        1.604   3.522   0.000   5.126
   48        1.599   3.537   0.000   5.136
   49        0.975   1.144   0.373   2.493
   50        0.966   1.106   0.360   2.432
   51        0.971   1.149   0.383   2.502
   52        0.962   1.117   0.370   2.448
   53        0.975   1.144   0.373   2.493
   54        0.970   1.134   0.374   2.478
   55        0.971   1.149   0.383   2.502
   56        0.974   1.144   0.372   2.490
   57        0.071   0.129   0.000   0.200
   58        0.071   0.133   0.000   0.204
   59        0.056   0.102   0.000   0.158
   60        0.058   0.105   0.000   0.163
   61        0.071   0.129   0.000   0.200
   62        0.071   0.133   0.000   0.204
   63        0.056   0.101   0.000   0.157
   64        0.064   0.115   0.000   0.179
   65        0.061   0.110   0.000   0.171
   66        0.061   0.112   0.000   0.173
   67        0.056   0.101   0.000   0.157
   68        0.064   0.115   0.000   0.179
   69        0.061   0.110   0.000   0.171
   70        0.061   0.112   0.000   0.173
   71        0.056   0.102   0.000   0.158
   72        0.058   0.105   0.000   0.163
   73        0.062   0.110   0.000   0.172
   74        0.060   0.107   0.000   0.167
   75        0.068   0.126   0.000   0.195
   76        0.060   0.107   0.000   0.167
   77        0.068   0.126   0.000   0.195
   78        0.060   0.107   0.000   0.168
   79        0.062   0.110   0.000   0.172
   80        0.060   0.107   0.000   0.168
--------------------------------------------------
tot         85.917 182.110   2.986 271.013
 
    CHARGE:  cpu time    0.2218: real time    0.2219
    FORLOC:  cpu time    0.0568: real time    0.0568
    FORNL :  cpu time    1.4237: real time    1.4243
    STRESS:  cpu time    7.0688: real time    7.0742
    FORCOR:  cpu time    0.1678: real time    0.1678
    FORHAR:  cpu time    0.0812: real time    0.0812
    MIXING:  cpu time    0.0038: real time    0.0038
    OFIELD:  cpu time    0.0000: real time    0.0000

  FORCE on cell =-STRESS in cart. coord.  units (eV):
  Direction    XX          YY          ZZ          XY          YZ          ZX
  --------------------------------------------------------------------------------------
  Alpha Z   310.04809   310.04809   310.04809
  Ewald   -5105.58063 -5450.39007 -4855.25820    -0.00000    -0.00000    22.85522
  Hartree  1544.97244  1337.52190  1692.75159    -0.00000     0.00000     8.09836
  E(xc)   -1403.68830 -1403.59798 -1405.06356     0.00000     0.00000     0.16520
  Local   -4339.78661 -3802.69210 -4720.36465    -0.00000     0.00000   -32.48880
  n-local  4204.10618  4200.78179  4209.64317    -0.00000     0.00000     0.17248
  augment  -980.06649  -981.09816  -979.49645     0.00000     0.00000    -0.09176
  Kinetic  5770.96068  5792.54114  5748.44322     0.00001     0.00000     1.41173
  Fock        0.00000     0.00000     0.00000     0.00000     0.00000     0.00000
  -------------------------------------------------------------------------------------
  Total       0.96535     3.11461     0.70322     0.00000     0.00000     0.12243
  in kB       0.83105     2.68129     0.60539     0.00000     0.00000     0.10540
  external pressure =        1.37 kB  Pullay stress =        0.00 kB


 VOLUME and BASIS-vectors are now :
 -----------------------------------------------------------------------------
  energy-cutoff  :      520.00
  volume of cell :     1861.11
      direct lattice vectors                 reciprocal lattice vectors
    13.459017910  0.000000000 -0.273085008     0.074898101  0.000000000  0.029495859
     0.000000000 11.456071877  0.000000000     0.000000000  0.087289955  0.000000000
    -4.791777054  0.000000000 12.167640179     0.001680979  0.000000000  0.082847197

  length of vectors
    13.461788088 11.456071877 13.077178399     0.080496777  0.087289955  0.082864248


 FORCES acting on ions
    electron-ion (+dipol)            ewald-force                    non-local-force                 convergence-correction
 -----------------------------------------------------------------------------------------------
   0.142E+02 0.706E+01 0.549E+02   -.143E+02 -.685E+01 -.563E+02   0.166E+00 -.214E+00 0.143E+01   0.729E-02 0.290E-02 0.656E-02
   -.142E+02 0.706E+01 -.549E+02   0.143E+02 -.685E+01 0.563E+02   -.166E+00 -.214E+00 -.143E+01   -.729E-02 0.290E-02 -.656E-02
   0.218E+02 -.724E+02 0.137E+01   -.229E+02 0.746E+02 -.299E+01   0.107E+01 -.213E+01 0.161E+01   -.417E-03 0.164E-02 0.551E-03
   -.218E+02 -.724E+02 -.137E+01   0.229E+02 0.746E+02 0.299E+01   -.107E+01 -.213E+01 -.161E+01   0.417E-03 0.164E-02 -.551E-03
   -.406E+02 -.417E+02 0.355E+01   0.414E+02 0.436E+02 -.273E+01   -.813E+00 -.183E+01 -.815E+00   -.154E-02 -.721E-03 -.260E-02
   -.325E+02 -.386E+02 0.273E+02   0.335E+02 0.395E+02 -.288E+02   -.997E+00 -.929E+00 0.146E+01   0.178E-02 0.572E-03 0.325E-02
   0.225E+02 0.764E+02 -.449E+01   -.236E+02 -.785E+02 0.365E+01   0.113E+01 0.212E+01 0.834E+00   0.483E-02 0.856E-03 0.598E-02
   -.251E+02 0.516E+02 0.162E+02   0.260E+02 -.539E+02 -.150E+02   -.851E+00 0.232E+01 -.124E+01   -.392E-02 0.757E-02 -.679E-02
   -.185E+02 -.453E+02 -.264E+01   0.192E+02 0.471E+02 0.352E+01   -.727E+00 -.178E+01 -.876E+00   0.239E-02 0.702E-02 0.267E-02
   0.185E+02 -.453E+02 0.264E+01   -.192E+02 0.471E+02 -.352E+01   0.727E+00 -.178E+01 0.876E+00   -.239E-02 0.702E-02 -.267E-02
   0.217E+02 0.263E+02 -.686E+01   -.222E+02 -.274E+02 0.664E+01   0.485E+00 0.107E+01 0.221E+00   0.151E-02 0.181E-02 -.169E-02
   -.217E+02 0.263E+02 0.686E+01   0.222E+02 -.274E+02 -.664E+01   -.485E+00 0.107E+01 -.221E+00   -.151E-02 0.181E-02 0.169E-02
   -.266E+02 -.402E+02 0.396E+01   0.278E+02 0.418E+02 -.351E+01   -.119E+01 -.159E+01 -.454E+00   0.317E-02 0.403E-02 0.284E-03
   0.195E+02 -.426E+02 -.147E+02   -.205E+02 0.445E+02 0.139E+02   0.989E+00 -.198E+01 0.787E+00   0.504E-02 0.176E-02 0.166E-02
   0.241E+02 0.589E+02 0.107E+01   -.252E+02 -.611E+02 -.167E+01   0.107E+01 0.229E+01 0.606E+00   -.431E-04 -.912E-02 -.426E-02
   -.153E+02 0.471E+02 -.252E+01   0.160E+02 -.486E+02 0.334E+01   -.772E+00 0.150E+01 -.830E+00   0.297E-02 -.833E-02 0.240E-02
   -.249E+02 -.491E+02 0.726E+01   0.259E+02 0.507E+02 -.639E+01   -.987E+00 -.155E+01 -.878E+00   0.245E-02 0.831E-02 0.681E-02
   0.249E+02 -.491E+02 -.726E+01   -.259E+02 0.507E+02 0.639E+01   0.987E+00 -.155E+01 0.878E+00   -.245E-02 0.831E-02 -.681E-02
   0.186E+02 0.361E+02 -.703E+01   -.193E+02 -.375E+02 0.642E+01   0.784E+00 0.145E+01 0.619E+00   -.176E-02 -.820E-02 -.440E-02
   -.186E+02 0.361E+02 0.703E+01   0.193E+02 -.375E+02 -.642E+01   -.784E+00 0.145E+01 -.619E+00   0.176E-02 -.820E-02 0.440E-02
   0.325E+02 -.386E+02 -.273E+02   -.335E+02 0.395E+02 0.288E+02   0.997E+00 -.929E+00 -.146E+01   -.178E-02 0.572E-03 -.325E-02
   0.406E+02 -.417E+02 -.355E+01   -.414E+02 0.436E+02 0.273E+01   0.813E+00 -.183E+01 0.815E+00   0.154E-02 -.721E-03 0.260E-02
   0.251E+02 0.516E+02 -.162E+02   -.260E+02 -.539E+02 0.150E+02   0.851E+00 0.232E+01 0.124E+01   0.392E-02 0.757E-02 0.679E-02
   -.225E+02 0.764E+02 0.449E+01   0.236E+02 -.785E+02 -.365E+01   -.113E+01 0.212E+01 -.834E+00   -.483E-02 0.856E-03 -.598E-02
   -.253E+02 -.369E+02 0.535E+01   0.255E+02 0.384E+02 -.484E+01   -.289E+00 -.147E+01 -.518E+00   0.492E-02 0.627E-02 0.552E-02
   0.253E+02 -.369E+02 -.535E+01   -.255E+02 0.384E+02 0.484E+01   0.289E+00 -.147E+01 0.518E+00   -.492E-02 0.627E-02 -.552E-02
   0.246E+02 0.292E+02 -.736E+01   -.254E+02 -.304E+02 0.643E+01   0.849E+00 0.118E+01 0.940E+00   -.533E-02 -.135E-01 -.772E-02
   -.246E+02 0.292E+02 0.736E+01   0.254E+02 -.304E+02 -.643E+01   -.849E+00 0.118E+01 -.940E+00   0.533E-02 -.135E-01 0.772E-02
   -.195E+02 -.426E+02 0.147E+02   0.205E+02 0.445E+02 -.139E+02   -.989E+00 -.198E+01 -.787E+00   -.504E-02 0.176E-02 -.166E-02
   0.266E+02 -.402E+02 -.396E+01   -.278E+02 0.418E+02 0.351E+01   0.119E+01 -.159E+01 0.454E+00   -.317E-02 0.403E-02 -.284E-03
   0.153E+02 0.471E+02 0.251E+01   -.160E+02 -.486E+02 -.334E+01   0.772E+00 0.150E+01 0.830E+00   -.297E-02 -.833E-02 -.240E-02
   -.241E+02 0.589E+02 -.107E+01   0.252E+02 -.611E+02 0.167E+01   -.107E+01 0.229E+01 -.606E+00   0.431E-04 -.912E-02 0.426E-02
   -.533E+02 -.123E+02 0.682E+00   0.559E+02 0.124E+02 -.114E+01   -.262E+01 -.280E-01 0.464E+00   -.240E-02 0.362E-02 -.598E-02
   0.533E+02 -.123E+02 -.682E+00   -.559E+02 0.124E+02 0.114E+01   0.262E+01 -.280E-01 -.464E+00   0.240E-02 0.362E-02 0.598E-02
   -.442E+02 0.754E+01 -.180E+02   0.457E+02 -.777E+01 0.173E+02   -.152E+01 0.235E+00 0.721E+00   0.115E-02 0.228E-02 0.186E-02
   0.384E+02 0.754E+01 0.131E+02   -.399E+02 -.724E+01 -.128E+02   0.144E+01 -.297E+00 -.331E+00   0.375E-02 0.944E-03 -.217E-02
   0.868E+01 -.308E+02 -.572E+02   -.871E+01 0.308E+02 0.588E+02   0.261E-01 -.217E-01 -.157E+01   -.341E-02 -.382E-02 -.109E-01
   -.868E+01 -.308E+02 0.572E+02   0.871E+01 0.308E+02 -.588E+02   -.261E-01 -.217E-01 0.157E+01   0.341E-02 -.382E-02 0.109E-01
   -.562E+02 0.538E+01 -.172E+02   0.589E+02 -.501E+01 0.164E+02   -.264E+01 -.367E+00 0.746E+00   -.296E-02 -.620E-03 0.274E-02
   0.159E+02 0.637E+02 -.213E+02   -.167E+02 -.653E+02 0.227E+02   0.770E+00 0.160E+01 -.138E+01   0.350E-02 0.607E-02 -.618E-02
   -.546E+02 -.488E+01 -.141E+02   0.573E+02 0.473E+01 0.138E+02   -.273E+01 0.153E+00 0.297E+00   -.581E-02 -.147E-03 -.112E-02
   0.546E+02 -.488E+01 0.141E+02   -.573E+02 0.473E+01 -.138E+02   0.273E+01 0.153E+00 -.297E+00   0.581E-02 -.147E-03 0.112E-02
   -.384E+02 0.754E+01 -.131E+02   0.399E+02 -.724E+01 0.128E+02   -.144E+01 -.297E+00 0.331E+00   -.375E-02 0.944E-03 0.217E-02
   0.442E+02 0.754E+01 0.180E+02   -.457E+02 -.777E+01 -.173E+02   0.152E+01 0.235E+00 -.721E+00   -.115E-02 0.228E-02 -.186E-02
   -.540E+02 -.847E+01 -.243E+02   0.557E+02 0.845E+01 0.239E+02   -.178E+01 0.279E-01 0.409E+00   -.907E-03 -.337E-02 -.621E-03
   0.540E+02 -.847E+01 0.243E+02   -.557E+02 0.845E+01 -.239E+02   0.178E+01 0.279E-01 -.409E+00   0.907E-03 -.337E-02 0.621E-03
   -.159E+02 0.637E+02 0.213E+02   0.167E+02 -.653E+02 -.227E+02   -.770E+00 0.160E+01 0.138E+01   -.350E-02 0.607E-02 0.618E-02
   0.562E+02 0.538E+01 0.172E+02   -.589E+02 -.501E+01 -.164E+02   0.264E+01 -.367E+00 -.746E+00   0.296E-02 -.620E-03 -.274E-02
   -.770E+01 0.966E+01 0.130E+01   0.931E+01 -.106E+02 -.120E+01   -.161E+01 0.951E+00 -.922E-01   0.884E-03 0.115E-02 0.409E-03
   -.491E-06 -.221E+01 -.933E-06   -.359E-05 0.339E+01 -.688E-05   0.000E+00 -.118E+01 0.000E+00   -.145E-08 0.548E-03 0.100E-08
   -.289E+01 0.332E+01 -.367E+01   0.256E+01 -.348E+01 0.273E+01   0.334E+00 0.157E+00 0.940E+00   0.148E-02 -.101E-03 0.163E-03
   0.641E-06 -.273E+01 0.981E-06   0.470E-05 0.313E+01 0.720E-05   0.000E+00 -.394E+00 0.000E+00   0.773E-09 0.564E-04 -.140E-08
   0.770E+01 0.966E+01 -.130E+01   -.931E+01 -.106E+02 0.120E+01   0.161E+01 0.951E+00 0.922E-01   -.884E-03 0.115E-02 -.409E-03
   -.497E-06 0.278E+01 -.894E-06   -.364E-05 -.259E+01 -.656E-05   0.000E+00 -.194E+00 0.000E+00   -.186E-08 -.128E-02 0.230E-08
   0.289E+01 0.332E+01 0.367E+01   -.256E+01 -.348E+01 -.273E+01   -.334E+00 0.157E+00 -.940E+00   -.148E-02 -.101E-03 -.163E-03
   0.216E-07 -.124E+02 0.146E-05   0.124E-06 0.138E+02 0.109E-04   0.000E+00 -.135E+01 0.000E+00   0.653E-09 0.119E-02 0.103E-08
   0.462E+00 -.880E+01 0.276E+01   -.867E-01 0.790E+01 -.343E+01   -.376E+00 0.896E+00 0.675E+00   -.378E-04 -.141E-03 0.279E-03
   0.319E+01 0.467E+01 -.368E+00   -.272E+01 -.349E+01 0.574E+00   -.476E+00 -.119E+01 -.207E+00   -.109E-03 0.838E-04 0.299E-03
   -.310E+01 -.405E+01 -.470E+01   0.296E+01 0.396E+01 0.462E+01   0.134E+00 0.957E-01 0.781E-01   0.424E-03 0.316E-03 -.104E-03
   -.826E+00 0.105E+02 -.119E+01   0.777E+00 -.981E+01 0.121E+01   0.498E-01 -.693E+00 -.104E-01   0.267E-03 -.236E-03 0.102E-03
   -.462E+00 -.880E+01 -.276E+01   0.867E-01 0.790E+01 0.343E+01   0.376E+00 0.896E+00 -.675E+00   0.378E-04 -.141E-03 -.279E-03
   -.319E+01 0.467E+01 0.368E+00   0.272E+01 -.349E+01 -.574E+00   0.476E+00 -.119E+01 0.207E+00   0.109E-03 0.838E-04 -.299E-03
   0.170E+01 -.538E+01 -.349E+01   -.137E+01 0.503E+01 0.305E+01   -.329E+00 0.353E+00 0.441E+00   0.185E-03 -.809E-05 0.314E-03
   -.587E+00 -.824E-01 -.140E-02   0.574E-01 -.725E+00 -.302E+00   0.529E+00 0.808E+00 0.305E+00   0.279E-04 -.446E-04 0.139E-03
   -.132E+01 -.807E+01 0.847E+00   0.138E+01 0.741E+01 -.765E+00   -.589E-01 0.661E+00 -.826E-01   0.221E-03 0.345E-03 0.716E-04
   0.372E+00 0.815E+01 -.672E+00   -.398E+00 -.737E+01 0.659E+00   0.265E-01 -.784E+00 0.130E-01   0.263E-03 -.523E-03 -.273E-04
   -.170E+01 -.538E+01 0.349E+01   0.137E+01 0.503E+01 -.305E+01   0.329E+00 0.353E+00 -.441E+00   -.185E-03 -.809E-05 -.314E-03
   0.587E+00 -.824E-01 0.140E-02   -.574E-01 -.725E+00 0.302E+00   -.529E+00 0.808E+00 -.305E+00   -.279E-04 -.446E-04 -.139E-03
   0.132E+01 -.807E+01 -.847E+00   -.138E+01 0.741E+01 0.765E+00   0.589E-01 0.661E+00 0.826E-01   -.221E-03 0.345E-03 -.716E-04
   -.372E+00 0.815E+01 0.672E+00   0.398E+00 -.737E+01 -.659E+00   -.265E-01 -.784E+00 -.130E-01   -.263E-03 -.523E-03 0.273E-04
   0.310E+01 -.405E+01 0.470E+01   -.296E+01 0.396E+01 -.462E+01   -.134E+00 0.957E-01 -.781E-01   -.424E-03 0.316E-03 0.104E-03
   0.826E+00 0.105E+02 0.119E+01   -.777E+00 -.981E+01 -.121E+01   -.498E-01 -.693E+00 0.104E-01   -.267E-03 -.236E-03 -.102E-03
   0.464E+01 0.443E+01 0.442E+01   -.495E+01 -.334E+01 -.455E+01   0.318E+00 -.108E+01 0.138E+00   -.197E-03 -.244E-03 0.439E-04
   -.274E+01 0.626E+00 -.455E+00   0.266E+01 -.676E+00 0.344E+00   0.853E-01 0.500E-01 0.111E+00   -.889E-04 0.200E-03 -.625E-04
   -.548E+01 -.176E+01 -.415E+00   0.446E+01 0.182E+01 0.776E+00   0.101E+01 -.528E-01 -.360E+00   -.208E-03 0.103E-03 -.956E-04
   0.274E+01 0.626E+00 0.455E+00   -.266E+01 -.676E+00 -.344E+00   -.853E-01 0.500E-01 -.111E+00   0.889E-04 0.200E-03 0.625E-04
   0.548E+01 -.176E+01 0.415E+00   -.446E+01 0.182E+01 -.776E+00   -.101E+01 -.528E-01 0.360E+00   0.208E-03 0.103E-03 0.956E-04
   0.914E+00 0.198E+01 0.365E+00   -.783E+00 -.229E+01 -.260E-01   -.130E+00 0.314E+00 -.338E+00   -.308E-05 -.548E-04 -.177E-03
   -.464E+01 0.443E+01 -.442E+01   0.495E+01 -.334E+01 0.455E+01   -.318E+00 -.108E+01 -.138E+00   0.197E-03 -.244E-03 -.439E-04
   -.914E+00 0.198E+01 -.365E+00   0.783E+00 -.229E+01 0.260E-01   0.130E+00 0.314E+00 0.338E+00   0.308E-05 -.548E-04 0.177E-03
 -----------------------------------------------------------------------------------------------
   0.274E-03 0.260E+01 -.697E-03   0.400E-13 -.733E-13 -.509E-13   0.194E-14 -.262E+01 0.167E-15   -.497E-08 0.178E-01 0.698E-08
 
 
 POSITION                                       TOTAL-FORCE (eV/Angst)
 -----------------------------------------------------------------------------------
      1.01036      1.91648      1.91035        -0.002510     -0.001179     -0.000343
      7.65688      1.91648      9.98420         0.002510     -0.001179      0.000343
      7.77108      9.34128     10.18647        -0.001831      0.000769     -0.002412
      0.89616      9.34128      1.70809         0.001831      0.000769      0.002412
      4.19530      7.46034      1.64690         0.000575      0.001629      0.002662
     -2.65521      7.54873     10.69884        -0.001165     -0.000135     -0.000134
     -2.33488      4.07506     10.45058         0.000147      0.002532     -0.000297
      4.22655      3.97412      1.60135         0.000615      0.000654     -0.000012
     -1.49341      1.72052      7.74480        -0.000917     -0.002793     -0.000233
     10.16065      1.72052      4.14976         0.000917     -0.002793      0.000233
     10.07854      9.61320      4.15696        -0.000143     -0.000978     -0.000398
     -1.41130      9.61320      7.73759         0.000143     -0.000978      0.000398
      2.05197      7.46633      7.58707        -0.000384     -0.000969      0.000662
     -0.04117      7.40005      4.47247        -0.000809     -0.002543      0.000497
     -0.08938      3.92524      4.63862        -0.000573      0.001205      0.001991
      1.88071      4.01672      7.77088        -0.000343      0.001232      0.001587
      7.68203      1.76057      1.49633         0.000774     -0.000735     -0.001091
      0.98521      1.76057     10.39823        -0.000774     -0.000735      0.001091
      1.04735      9.71672     10.39254         0.000395      0.002270      0.000969
      7.61989      9.71672      1.50201        -0.000395      0.002270     -0.000969
     11.32245      7.54873      1.19571         0.001165     -0.000135      0.000134
      4.47194      7.46034     10.24765        -0.000575      0.001629     -0.002662
      4.44069      3.97412     10.29320        -0.000615      0.000654      0.000012
     11.00212      4.07506      1.44397        -0.000147      0.002532      0.000297
      5.08022      1.81251      7.57678        -0.001707     -0.001587     -0.001812
      3.58702      1.81251      4.31777         0.001707     -0.001587      0.001812
      3.37677      9.75972      4.19794         0.000496      0.002675      0.000808
      5.29047      9.75972      7.69662        -0.000496      0.002675     -0.000808
      8.70841      7.40005      7.42209         0.000809     -0.002543     -0.000497
      6.61527      7.46633      4.30749         0.000384     -0.000969     -0.000662
      6.78654      4.01672      4.12368         0.000343      0.001232     -0.001587
      8.75662      3.92524      7.25594         0.000573      0.001205     -0.001991
     -0.33361     11.32032      4.65027         0.001749     -0.003252      0.002005
      9.00085     11.32032      7.24428        -0.001749     -0.003252     -0.002005
      2.98600      5.62338      4.51297         0.000784     -0.000481     -0.001473
     -1.12458      5.88851      7.61715        -0.000085     -0.000498      0.001114
     -2.53960     11.32795     10.68900        -0.000066      0.000557      0.002425
     11.20684     11.32795      1.20555         0.000066      0.000557     -0.002425
      0.60161      5.98243     10.66486         0.001585      0.001431      0.000500
      1.11867      5.82311      1.32608        -0.000886     -0.000563      0.000255
      6.45306     11.37232      4.59089         0.002897      0.000174      0.000091
      2.21418     11.37232      7.30367        -0.002897      0.000174     -0.000091
      9.79182      5.88851      4.27741         0.000085     -0.000498     -0.001114
      5.68124      5.62338      7.38159        -0.000784     -0.000481      0.001473
      4.01384      0.04110     10.53355         0.000989      0.002005     -0.000954
      4.65340      0.04110      1.36100        -0.000989      0.002005      0.000954
      7.54857      5.82311     10.56847         0.000886     -0.000563     -0.000255
      8.06563      5.98243      1.22969        -0.001585      0.001431     -0.000500
      3.41173      5.68883     -0.00885        -0.000937     -0.000987      0.001332
     -2.39589      0.00327      6.08382        -0.000000     -0.001941     -0.000000
      0.95290      5.70873      6.07270        -0.000212      0.000929      0.000247
      6.72951      0.04246     -0.13654        -0.000000      0.001121     -0.000000
      5.25551      5.68883     11.90340         0.000937     -0.000987     -0.001332
      4.33362     11.40155      5.94728         0.000000     -0.000169     -0.000000
      7.71434      5.70873      5.82186         0.000212      0.000929     -0.000247
      0.00000      7.78644     -0.00000         0.000000     -0.000923     -0.000000
     12.36253      1.39707      2.48350        -0.000420     -0.001580      0.004634
     -3.43330      9.86981      9.15716        -0.001342     -0.003683      0.000089
      2.11014      7.61659      3.14902        -0.001606     -0.000071     -0.000256
     -0.19989      4.13584      9.15959         0.001612      0.003483      0.003719
     -3.69529      1.39707      9.41106         0.000420     -0.001580     -0.004634
     12.10054      9.86981      2.73740         0.001342     -0.003683     -0.000089
     -0.00930      7.76441      8.86637         0.000360      0.001835     -0.000149
      1.99502      3.48276      3.28229        -0.000773      0.001130      0.001619
      5.72562      1.65081      3.02370         0.001493      0.002542      0.000071
      3.11733      9.80755      8.97945         0.000882     -0.000541      0.000502
      8.67654      7.76441      3.02819        -0.000360      0.001835      0.000149
      6.67222      3.48276      8.61226         0.000773      0.001130     -0.001619
      2.94162      1.65081      8.87086        -0.001493      0.002542     -0.000071
      5.54991      9.80755      2.91510        -0.000882     -0.000541     -0.000502
      6.55710      7.61659      8.74554         0.001606     -0.000071      0.000256
      8.86713      4.13584      2.73497        -0.001612      0.003483     -0.003719
      2.45243      0.29936      2.63255        -0.000094     -0.000000      0.001394
      5.20533      5.70070      3.12550        -0.001378     -0.000016      0.000344
     -0.67066      0.01250      9.35541        -0.000337     -0.000701      0.000630
      3.46191      5.70070      8.76906         0.001378     -0.000016     -0.000344
      9.33790      0.01250      2.53914         0.000337     -0.000701     -0.000630
     12.04646      5.57375      3.16738         0.000622     -0.002803      0.001158
      6.21481      0.29936      9.26201         0.000094     -0.000000     -0.001394
     -3.37922      5.57375      8.72717        -0.000622     -0.002803     -0.001158
 -----------------------------------------------------------------------------------
    total drift:                                0.000274      0.000595     -0.000697


--------------------------------------------------------------------------------------------------------



  FREE ENERGIE OF THE ION-ELECTRON SYSTEM (eV)
  ---------------------------------------------------
  free  energy   TOTEN  =      -274.09815317 eV

  energy  without entropy=     -274.09815317  energy(sigma->0) =     -274.09815317
 
 d Force = 0.1039076E-03[ 0.550E-04, 0.153E-03]  d Energy = 0.1056138E-03-0.171E-05
 d Force =-0.3324215E-01[-0.339E-01,-0.326E-01]  d Ewald  =-0.3324137E-01-0.785E-06


--------------------------------------------------------------------------------------------------------


    POTLOK:  cpu time    0.2916: real time    0.2917


--------------------------------------------------------------------------------------------------------


 Steepest descent step on ions:
 trial-energy change:   -0.000106  1 .order   -0.000104   -0.000153   -0.000055
  (g-gl).g = 0.750E-04      g.g   = 0.818E-04  gl.gl    = 0.753E-04
 g(Force)  = 0.818E-04   g(Stress)= 0.000E+00 ortho     = 0.195E-04
 gamma     =   0.00000
 trial     =   1.86885
 opt step  =   2.91857  (harmonic =   2.91857) maximal distance =0.00119234
 next E    =  -274.098167   (d E  =  -0.00012)


--------------------------------------------------------------------------------------------------------


    WAVPRE:  cpu time    0.0691: real time    0.0710
    FEWALD:  cpu time    0.0016: real time    0.0016
    ORTHCH:  cpu time    0.9011: real time    0.9016
     LOOP+:  cpu time   27.5736: real time   27.6167


--------------------------------------- Iteration     17(   1)  ---------------------------------------


    POTLOK:  cpu time    0.1287: real time    0.1428
    SETDIJ:  cpu time    0.1588: real time    0.1589
     EDDAV:  cpu time    5.1516: real time    5.1618
       DOS:  cpu time    0.0002: real time    0.0002
    CHARGE:  cpu time    0.2233: real time    0.2234
    MIXING:  cpu time    0.0043: real time    0.0044
    --------------------------------------------
      LOOP:  cpu time    5.6669: real time    5.6915

 eigenvalue-minimisations  :   480
 total energy-change (2. order) : 0.8577303E-05  (-0.5036085E-03)
 number of electron     384.0000001 magnetization 
 augmentation part      -49.4174604 magnetization 

 Broyden mixing:
  rms(total) = 0.13267E-02    rms(broyden)= 0.13266E-02
  rms(prec ) = 0.16380E-02
  weight for this iteration     100.00

 Free energy of the ion-electron system (eV)
  ---------------------------------------------------
  alpha Z        PSCENC =       310.04809462
  Ewald energy   TEWEN  =    -15411.11999051
  -Hartree energ DENC   =     -4575.26698557
  -exchange      EXHF   =         0.00000000
  -V(xc)+E(xc)   XCENC  =       447.05756760
  PAW double counting   =     11244.52610259   -10653.81924353
  entropy T*S    EENTRO =        -0.00000000
  eigenvalues    EBANDS =     -1859.78284733
  atomic energy  EATOM  =     20224.25915541
  Solvation  Ediel_sol  =         0.00000000
  ---------------------------------------------------
  free energy    TOTEN  =      -274.09814672 eV

  energy without entropy =     -274.09814672  energy(sigma->0) =     -274.09814672


--------------------------------------------------------------------------------------------------------




--------------------------------------- Iteration     17(   2)  ---------------------------------------


    POTLOK:  cpu time    0.1303: real time    0.1350
    SETDIJ:  cpu time    0.1588: real time    0.1589
     EDDAV:  cpu time    5.8164: real time    5.8217
       DOS:  cpu time    0.0003: real time    0.0003
    CHARGE:  cpu time    0.2236: real time    0.2237
    MIXING:  cpu time    0.0044: real time    0.0043
    --------------------------------------------
      LOOP:  cpu time    6.3338: real time    6.3439

 eigenvalue-minimisations  :   560
 total energy-change (2. order) :-0.1942393E-04  (-0.2290969E-04)
 number of electron     384.0000001 magnetization 
 augmentation part      -49.4174711 magnetization 

 Broyden mixing:
  rms(total) = 0.71286E-03    rms(broyden)= 0.71251E-03
  rms(prec ) = 0.98172E-03
  weight for this iteration     100.00

 eigenvalues of (default mixing * dielectric matrix)
  average eigenvalue GAMMA=   0.8464
  0.8464

 Free energy of the ion-electron system (eV)
  ---------------------------------------------------
  alpha Z        PSCENC =       310.04809462
  Ewald energy   TEWEN  =    -15411.11999051
  -Hartree energ DENC   =     -4575.26753088
  -exchange      EXHF   =         0.00000000
  -V(xc)+E(xc)   XCENC  =       447.05760198
  PAW double counting   =     11244.53465629   -10653.82790653
  entropy T*S    EENTRO =        -0.00000000
  eigenvalues    EBANDS =     -1859.78224652
  atomic energy  EATOM  =     20224.25915541
  Solvation  Ediel_sol  =         0.00000000
  ---------------------------------------------------
  free energy    TOTEN  =      -274.09816614 eV

  energy without entropy =     -274.09816614  energy(sigma->0) =     -274.09816614


--------------------------------------------------------------------------------------------------------




--------------------------------------- Iteration     17(   3)  ---------------------------------------


    POTLOK:  cpu time    0.1310: real time    0.1352
    SETDIJ:  cpu time    0.1590: real time    0.1591
     EDDAV:  cpu time    4.1732: real time    4.1779
       DOS:  cpu time    0.0002: real time    0.0002
    --------------------------------------------
      LOOP:  cpu time    4.4635: real time    4.4723

 eigenvalue-minimisations  :   360
 total energy-change (2. order) : 0.1120872E-05  (-0.5464040E-06)
 number of electron     384.0000001 magnetization 
 augmentation part      -49.4174711 magnetization 

 Free energy of the ion-electron system (eV)
  ---------------------------------------------------
  alpha Z        PSCENC =       310.04809462
  Ewald energy   TEWEN  =    -15411.11999051
  -Hartree energ DENC   =     -4575.26791360
  -exchange      EXHF   =         0.00000000
  -V(xc)+E(xc)   XCENC  =       447.05761599
  PAW double counting   =     11244.53971299   -10653.83303437
  entropy T*S    EENTRO =        -0.00000000
  eigenvalues    EBANDS =     -1859.78180556
  atomic energy  EATOM  =     20224.25915541
  Solvation  Ediel_sol  =         0.00000000
  ---------------------------------------------------
  free energy    TOTEN  =      -274.09816502 eV

  energy without entropy =     -274.09816502  energy(sigma->0) =     -274.09816502


--------------------------------------------------------------------------------------------------------




 average (electrostatic) potential at core
  the test charge radii are     0.9406  1.4837  0.9748
  (the norm of the test charge is              1.0000)
       1 -92.6775       2 -92.6775       3 -94.2206       4 -94.2206       5 -94.0906
       6 -94.7282       7 -94.1107       8 -94.0433       9 -93.5684      10 -93.5683
      11 -93.6639      12 -93.6640      13 -94.1632      14 -94.0173      15 -94.0135
      16 -94.1655      17 -93.9892      18 -93.9893      19 -93.9809      20 -93.9809
      21 -94.7281      22 -94.0906      23 -94.0434      24 -94.1107      25 -93.9987
      26 -93.9986      27 -94.0211      28 -94.0211      29 -94.0173      30 -94.1632
      31 -94.1655      32 -94.0135      33 -93.7019      34 -93.7019      35 -94.0659
      36 -94.1302      37 -92.5387      38 -92.5387      39 -94.0705      40 -94.6529
      41 -93.9826      42 -93.9826      43 -94.1302      44 -94.0659      45 -94.0832
      46 -94.0831      47 -94.6529      48 -94.0704      49 -41.9806      50 -41.5372
      51 -41.8883      52 -41.9115      53 -41.9806      54 -41.8093      55 -41.8883
      56 -42.2086      57 -27.8225      58 -28.1145      59 -28.7417      60 -28.7693
      61 -27.8225      62 -28.1145      63 -28.8961      64 -28.3765      65 -28.6614
      66 -28.6646      67 -28.8961      68 -28.3765      69 -28.6614      70 -28.6646
      71 -28.7417      72 -28.7693      73 -28.5149      74 -28.7536      75 -27.9705
      76 -28.7536      77 -27.9705      78 -28.8434      79 -28.5149      80 -28.8434
 
 
 
 E-fermi :   0.4227     XC(G=0):  -7.8727     alpha+bet : -7.9187


 k-point     1 :       0.0000    0.0000    0.0000
  band No.  band energies     occupation 
      1     -14.6437      2.00000
      2     -14.3821      2.00000
      3     -14.1655      2.00000
      4     -14.1433      2.00000
      5     -14.0816      2.00000
      6     -14.0602      2.00000
      7     -14.0436      2.00000
      8     -13.9215      2.00000
      9     -13.8709      2.00000
     10     -13.8339      2.00000
     11     -13.8062      2.00000
     12     -13.7731      2.00000
     13     -13.7458      2.00000
     14     -13.7314      2.00000
     15     -13.7212      2.00000
     16     -13.6814      2.00000
     17     -13.6780      2.00000
     18     -13.6605      2.00000
     19     -13.6477      2.00000
     20     -13.6010      2.00000
     21     -13.5964      2.00000
     22     -13.5837      2.00000
     23     -13.5801      2.00000
     24     -13.5549      2.00000
     25     -13.5457      2.00000
     26     -13.4996      2.00000
     27     -13.4922      2.00000
     28     -13.4592      2.00000
     29     -13.4534      2.00000
     30     -13.4453      2.00000
     31     -13.4120      2.00000
     32     -13.4080      2.00000
     33     -13.4023      2.00000
     34     -13.3806      2.00000
     35     -13.3583      2.00000
     36     -13.3431      2.00000
     37     -13.3212      2.00000
     38     -13.3027      2.00000
     39     -13.2868      2.00000
     40     -13.2778      2.00000
     41     -13.1722      2.00000
     42     -13.1188      2.00000
     43     -12.9589      2.00000
     44     -12.9300      2.00000
     45     -12.2853      2.00000
     46     -12.2627      2.00000
     47     -12.1453      2.00000
     48     -12.1404      2.00000
     49      -5.5945      2.00000
     50      -5.3092      2.00000
     51      -5.2583      2.00000
     52      -5.1494      2.00000
     53      -5.1229      2.00000
     54      -5.0939      2.00000
     55      -4.9936      2.00000
     56      -4.6688      2.00000
     57      -3.8643      2.00000
     58      -3.6779      2.00000
     59      -3.6762      2.00000
     60      -3.4812      2.00000
     61      -3.4234      2.00000
     62      -3.3916      2.00000
     63      -3.3909      2.00000
     64      -3.3664      2.00000
     65      -3.2693      2.00000
     66      -3.2497      2.00000
     67      -3.2284      2.00000
     68      -3.2278      2.00000
     69      -3.1794      2.00000
     70      -3.0651      2.00000
     71      -3.0419      2.00000
     72      -3.0106      2.00000
     73      -3.0057      2.00000
     74      -2.9715      2.00000
     75      -2.9582      2.00000
     76      -2.8973      2.00000
     77      -2.8228      2.00000
     78      -2.7610      2.00000
     79      -2.7413      2.00000
     80      -2.7346      2.00000
     81      -2.6560      2.00000
     82      -2.6208      2.00000
     83      -2.6150      2.00000
     84      -2.5936      2.00000
     85      -2.5662      2.00000
     86      -2.5534      2.00000
     87      -2.5025      2.00000
     88      -2.4555      2.00000
     89      -2.4128      2.00000
     90      -2.3916      2.00000
     91      -2.3667      2.00000
     92      -2.3508      2.00000
     93      -2.3233      2.00000
     94      -2.3146      2.00000
     95      -2.3066      2.00000
     96      -2.3050      2.00000
     97      -2.2545      2.00000
     98      -2.2217      2.00000
     99      -2.2184      2.00000
    100      -2.1940      2.00000
    101      -2.1640      2.00000
    102      -2.1444      2.00000
    103      -2.1209      2.00000
    104      -2.0645      2.00000
    105      -2.0195      2.00000
    106      -2.0034      2.00000
    107      -1.9701      2.00000
    108      -1.9544      2.00000
    109      -1.9308      2.00000
    110      -1.9109      2.00000
    111      -1.9022      2.00000
    112      -1.8897      2.00000
    113      -1.8567      2.00000
    114      -1.8238      2.00000
    115      -1.8221      2.00000
    116      -1.7922      2.00000
    117      -1.7772      2.00000
    118      -1.7209      2.00000
    119      -1.7026      2.00000
    120      -1.6864      2.00000
    121      -1.6762      2.00000
    122      -1.6755      2.00000
    123      -1.6483      2.00000
    124      -1.6422      2.00000
    125      -1.6112      2.00000
    126      -1.6077      2.00000
    127      -1.5815      2.00000
    128      -1.5584      2.00000
    129      -1.5513      2.00000
    130      -1.5284      2.00000
    131      -1.5202      2.00000
    132      -1.5140      2.00000
    133      -1.4908      2.00000
    134      -1.4643      2.00000
    135      -1.4473      2.00000
    136      -1.4407      2.00000
    137      -1.4325      2.00000
    138      -1.3920      2.00000
    139      -1.3906      2.00000
    140      -1.3810      2.00000
    141      -1.3508      2.00000
    142      -1.3498      2.00000
    143      -1.3334      2.00000
    144      -1.3324      2.00000
    145      -1.3077      2.00000
    146      -1.2988      2.00000
    147      -1.2807      2.00000
    148      -1.2686      2.00000
    149      -1.2545      2.00000
    150      -1.2430      2.00000
    151      -1.2277      2.00000
    152      -1.2101      2.00000
    153      -1.1959      2.00000
    154      -1.1811      2.00000
    155      -1.1794      2.00000
    156      -1.1592      2.00000
    157      -1.1492      2.00000
    158      -1.1194      2.00000
    159      -1.0970      2.00000
    160      -1.0829      2.00000
    161      -1.0817      2.00000
    162      -1.0757      2.00000
    163      -1.0602      2.00000
    164      -1.0560      2.00000
    165      -1.0150      2.00000
    166      -0.9935      2.00000
    167      -0.9808      2.00000
    168      -0.9738      2.00000
    169      -0.9471      2.00000
    170      -0.9322      2.00000
    171      -0.9216      2.00000
    172      -0.9066      2.00000
    173      -0.8802      2.00000
    174      -0.8644      2.00000
    175      -0.8318      2.00000
    176      -0.8028      2.00000
    177      -0.7956      2.00000
    178      -0.7611      2.00000
    179      -0.7536      2.00000
    180      -0.6719      2.00000
    181      -0.6688      2.00000
    182      -0.5975      2.00000
    183      -0.5961      2.00000
    184      -0.5222      2.00000
    185      -0.3589      2.00000
    186      -0.3543      2.00000
    187      -0.3381      2.00000
    188      -0.2728      2.00000
    189      -0.2385      2.00000
    190      -0.2235      2.00000
    191      -0.1591      2.00000
    192      -0.0634      2.00000
    193       2.4858      0.00000
    194       2.8040      0.00000
    195       2.8203      0.00000
    196       2.9401      0.00000
    197       3.1362      0.00000
    198       3.1481      0.00000
    199       3.2238      0.00000
    200       3.4323      0.00000
    201       5.6800      0.00000
    202       5.8154      0.00000
    203       5.9164      0.00000
    204       5.9632      0.00000
    205       6.0661      0.00000
    206       6.0780      0.00000
    207       6.1350      0.00000
    208       6.1849      0.00000
    209       6.2662      0.00000
    210       6.3698      0.00000
    211       6.4913      0.00000
    212       6.5364      0.00000
    213       6.6336      0.00000
    214       6.6422      0.00000
    215       6.6981      0.00000
    216       6.7451      0.00000
    217       6.8242      0.00000
    218       6.8389      0.00000
    219       6.9195      0.00000
    220       6.9724      0.00000
    221       6.9911      0.00000
    222       7.0523      0.00000
    223       7.1795      0.00000
    224       7.2359      0.00000
    225       7.2695      0.00000
    226       7.3661      0.00000
    227       7.4416      0.00000
    228       7.4626      0.00000
    229       7.5424      0.00000
    230       7.5565      0.00000
    231       7.6022      0.00000
    232       7.6955      0.00000
    233       7.7849      0.00000
    234       7.8043      0.00000
    235       7.8234      0.00000
    236       7.8759      0.00000
    237       7.8860      0.00000
    238       7.9046      0.00000
    239       7.9844      0.00000
    240       8.0086      0.00000


--------------------------------------------------------------------------------------------------------


 soft charge-density along one line, spin component           1
         0         1         2         3         4         5         6         7         8         9
 total charge-density along one line
 
 pseudopotential strength for first ion, spin component:           1
 47.402  -0.016  -0.003   0.019   0.003  -0.000   0.000   0.000
 -0.016   0.019  -0.000   0.000   0.000  -0.000   0.000   0.000
 -0.003  -0.000   9.108   0.000  -0.000   0.002  -0.000   0.000
  0.019   0.000   0.000   9.105   0.000  -0.000   0.002  -0.000
  0.003   0.000  -0.000   0.000   9.109   0.000  -0.000   0.002
 -0.000  -0.000   0.002  -0.000   0.000   0.035   0.000   0.000
  0.000   0.000  -0.000   0.002  -0.000   0.000   0.035   0.000
  0.000   0.000   0.000  -0.000   0.002   0.000   0.000   0.035
 total augmentation occupancy for first ion, spin component:           1
  1.911   0.427   0.009  -0.060  -0.010   0.011  -0.066  -0.012
  0.427   0.249  -0.053   0.334   0.058   0.013  -0.099  -0.024
  0.009  -0.053   1.759  -0.002   0.003  -0.398  -0.007   0.002
 -0.060   0.334  -0.002   1.797  -0.001  -0.007  -0.329  -0.010
 -0.010   0.058   0.003  -0.001   1.750   0.002  -0.010  -0.423
  0.011   0.013  -0.398  -0.007   0.002   0.101   0.003  -0.000
 -0.066  -0.099  -0.007  -0.329  -0.010   0.003   0.078   0.006
 -0.012  -0.024   0.002  -0.010  -0.423  -0.000   0.006   0.114


------------------------ aborting loop because EDIFF is reached ----------------------------------------


 


 total charge     
 
# of ion       s       p       d       tot
------------------------------------------
    1        1.589   3.591   0.000   5.180
    2        1.589   3.591   0.000   5.180
    3        1.599   3.535   0.000   5.134
    4        1.599   3.535   0.000   5.134
    5        1.598   3.544   0.000   5.142
    6        1.603   3.527   0.000   5.130
    7        1.598   3.539   0.000   5.137
    8        1.599   3.536   0.000   5.135
    9        1.597   3.539   0.000   5.136
   10        1.597   3.539   0.000   5.136
   11        1.594   3.555   0.000   5.149
   12        1.594   3.555   0.000   5.149
   13        1.597   3.549   0.000   5.145
   14        1.598   3.544   0.000   5.143
   15        1.599   3.543   0.000   5.142
   16        1.596   3.550   0.000   5.146
   17        1.597   3.544   0.000   5.140
   18        1.597   3.544   0.000   5.140
   19        1.595   3.548   0.000   5.144
   20        1.595   3.548   0.000   5.144
   21        1.603   3.527   0.000   5.130
   22        1.598   3.544   0.000   5.142
   23        1.599   3.536   0.000   5.135
   24        1.598   3.539   0.000   5.137
   25        1.596   3.561   0.000   5.156
   26        1.596   3.561   0.000   5.156
   27        1.596   3.546   0.000   5.142
   28        1.596   3.546   0.000   5.142
   29        1.598   3.544   0.000   5.143
   30        1.597   3.549   0.000   5.145
   31        1.596   3.550   0.000   5.146
   32        1.599   3.543   0.000   5.142
   33        1.599   3.539   0.000   5.139
   34        1.599   3.539   0.000   5.139
   35        1.596   3.552   0.000   5.148
   36        1.595   3.562   0.000   5.157
   37        1.590   3.591   0.000   5.181
   38        1.590   3.591   0.000   5.181
   39        1.599   3.537   0.000   5.136
   40        1.604   3.522   0.000   5.126
   41        1.600   3.541   0.000   5.140
   42        1.600   3.541   0.000   5.140
   43        1.595   3.562   0.000   5.157
   44        1.596   3.552   0.000   5.148
   45        1.596   3.558   0.000   5.153
   46        1.596   3.558   0.000   5.153
   47        1.604   3.522   0.000   5.126
   48        1.599   3.537   0.000   5.136
   49        0.975   1.144   0.373   2.492
   50        0.966   1.107   0.360   2.432
   51        0.971   1.149   0.383   2.503
   52        0.962   1.117   0.370   2.448
   53        0.975   1.144   0.373   2.492
   54        0.970   1.134   0.375   2.479
   55        0.971   1.149   0.383   2.503
   56        0.974   1.144   0.372   2.490
   57        0.071   0.129   0.000   0.200
   58        0.071   0.133   0.000   0.204
   59        0.056   0.102   0.000   0.158
   60        0.058   0.105   0.000   0.163
   61        0.071   0.129   0.000   0.200
   62        0.071   0.133   0.000   0.204
   63        0.056   0.101   0.000   0.157
   64        0.064   0.115   0.000   0.179
   65        0.061   0.110   0.000   0.171
   66        0.061   0.112   0.000   0.173
   67        0.056   0.101   0.000   0.157
   68        0.064   0.115   0.000   0.179
   69        0.061   0.110   0.000   0.171
   70        0.061   0.112   0.000   0.173
   71        0.056   0.102   0.000   0.158
   72        0.058   0.105   0.000   0.163
   73        0.062   0.110   0.000   0.172
   74        0.060   0.107   0.000   0.167
   75        0.068   0.126   0.000   0.195
   76        0.060   0.107   0.000   0.167
   77        0.068   0.126   0.000   0.195
   78        0.060   0.107   0.000   0.168
   79        0.062   0.110   0.000   0.172
   80        0.060   0.107   0.000   0.168
--------------------------------------------------
tot         85.917 182.110   2.986 271.014
 
    CHARGE:  cpu time    0.2221: real time    0.2223
    FORLOC:  cpu time    0.0570: real time    0.0570
    FORNL :  cpu time    1.4279: real time    1.4288
    STRESS:  cpu time    7.0433: real time    7.0497
    FORCOR:  cpu time    0.1678: real time    0.1678
    FORHAR:  cpu time    0.0815: real time    0.0815
    MIXING:  cpu time    0.0038: real time    0.0038
    OFIELD:  cpu time    0.0000: real time    0.0000

  FORCE on cell =-STRESS in cart. coord.  units (eV):
  Direction    XX          YY          ZZ          XY          YZ          ZX
  --------------------------------------------------------------------------------------
  Alpha Z   310.04809   310.04809   310.04809
  Ewald   -5105.59047 -5450.56326 -4855.05596    -0.00000    -0.00000    22.93036
  Hartree  1544.98275  1337.42493  1692.86225    -0.00000     0.00000     8.10357
  E(xc)   -1403.68778 -1403.59913 -1405.06498     0.00000     0.00000     0.16336
  Local   -4339.79024 -3802.43293 -4720.66729    -0.00000     0.00000   -32.55649
  n-local  4204.09922  4200.78543  4209.65259    -0.00000     0.00000     0.18595
  augment  -980.06482  -981.09863  -979.49560     0.00000     0.00000    -0.09238
  Kinetic  5770.95652  5792.56003  5748.42205     0.00001     0.00000     1.39368
  Fock        0.00000     0.00000     0.00000     0.00000     0.00000     0.00000
  -------------------------------------------------------------------------------------
  Total       0.95327     3.12454     0.70117     0.00000     0.00000     0.12804
  in kB       0.82064     2.68983     0.60362     0.00000     0.00000     0.11023
  external pressure =        1.37 kB  Pullay stress =        0.00 kB


 VOLUME and BASIS-vectors are now :
 -----------------------------------------------------------------------------
  energy-cutoff  :      520.00
  volume of cell :     1861.11
      direct lattice vectors                 reciprocal lattice vectors
    13.459017910  0.000000000 -0.273085008     0.074898101  0.000000000  0.029495859
     0.000000000 11.456071877  0.000000000     0.000000000  0.087289955  0.000000000
    -4.791777054  0.000000000 12.167640179     0.001680979  0.000000000  0.082847197

  length of vectors
    13.461788088 11.456071877 13.077178399     0.080496777  0.087289955  0.082864248


 FORCES acting on ions
    electron-ion (+dipol)            ewald-force                    non-local-force                 convergence-correction
 -----------------------------------------------------------------------------------------------
   0.141E+02 0.705E+01 0.549E+02   -.143E+02 -.684E+01 -.563E+02   0.166E+00 -.214E+00 0.143E+01   0.515E-02 0.192E-02 0.372E-02
   -.141E+02 0.705E+01 -.549E+02   0.143E+02 -.684E+01 0.563E+02   -.166E+00 -.214E+00 -.143E+01   -.515E-02 0.192E-02 -.372E-02
   0.218E+02 -.724E+02 0.139E+01   -.229E+02 0.746E+02 -.300E+01   0.107E+01 -.213E+01 0.161E+01   0.190E-04 0.138E-02 0.158E-03
   -.218E+02 -.724E+02 -.139E+01   0.229E+02 0.746E+02 0.300E+01   -.107E+01 -.213E+01 -.161E+01   -.190E-04 0.138E-02 -.158E-03
   -.405E+02 -.417E+02 0.355E+01   0.414E+02 0.436E+02 -.273E+01   -.813E+00 -.183E+01 -.815E+00   -.639E-03 -.457E-03 -.173E-02
   -.325E+02 -.386E+02 0.273E+02   0.335E+02 0.395E+02 -.288E+02   -.997E+00 -.929E+00 0.146E+01   0.913E-03 0.122E-03 0.117E-02
   0.225E+02 0.764E+02 -.452E+01   -.236E+02 -.785E+02 0.369E+01   0.113E+01 0.212E+01 0.833E+00   0.259E-02 0.370E-03 0.346E-02
   -.251E+02 0.515E+02 0.163E+02   0.260E+02 -.539E+02 -.150E+02   -.850E+00 0.232E+01 -.124E+01   -.253E-02 0.447E-02 -.413E-02
   -.185E+02 -.453E+02 -.266E+01   0.192E+02 0.471E+02 0.354E+01   -.726E+00 -.178E+01 -.876E+00   0.209E-02 0.477E-02 0.151E-02
   0.185E+02 -.453E+02 0.266E+01   -.192E+02 0.471E+02 -.354E+01   0.726E+00 -.178E+01 0.876E+00   -.209E-02 0.477E-02 -.151E-02
   0.217E+02 0.263E+02 -.684E+01   -.222E+02 -.274E+02 0.662E+01   0.485E+00 0.107E+01 0.221E+00   0.981E-03 0.151E-02 -.379E-03
   -.217E+02 0.263E+02 0.684E+01   0.222E+02 -.274E+02 -.662E+01   -.485E+00 0.107E+01 -.221E+00   -.981E-03 0.151E-02 0.379E-03
   -.266E+02 -.402E+02 0.396E+01   0.278E+02 0.418E+02 -.350E+01   -.119E+01 -.159E+01 -.454E+00   0.166E-02 0.255E-02 0.161E-03
   0.195E+02 -.426E+02 -.147E+02   -.205E+02 0.445E+02 0.139E+02   0.989E+00 -.198E+01 0.786E+00   0.279E-02 0.923E-03 0.112E-02
   0.241E+02 0.589E+02 0.108E+01   -.252E+02 -.612E+02 -.168E+01   0.107E+01 0.229E+01 0.606E+00   -.199E-03 -.539E-02 -.312E-02
   -.153E+02 0.472E+02 -.254E+01   0.161E+02 -.487E+02 0.337E+01   -.773E+00 0.150E+01 -.831E+00   0.196E-02 -.529E-02 0.111E-02
   -.249E+02 -.492E+02 0.723E+01   0.259E+02 0.507E+02 -.636E+01   -.988E+00 -.155E+01 -.879E+00   0.109E-02 0.458E-02 0.393E-02
   0.249E+02 -.492E+02 -.723E+01   -.259E+02 0.507E+02 0.636E+01   0.988E+00 -.155E+01 0.879E+00   -.109E-02 0.458E-02 -.393E-02
   0.186E+02 0.361E+02 -.702E+01   -.194E+02 -.375E+02 0.640E+01   0.784E+00 0.145E+01 0.619E+00   -.109E-02 -.496E-02 -.291E-02
   -.186E+02 0.361E+02 0.702E+01   0.194E+02 -.375E+02 -.640E+01   -.784E+00 0.145E+01 -.619E+00   0.109E-02 -.496E-02 0.291E-02
   0.325E+02 -.386E+02 -.273E+02   -.335E+02 0.395E+02 0.288E+02   0.997E+00 -.929E+00 -.146E+01   -.913E-03 0.122E-03 -.117E-02
   0.405E+02 -.417E+02 -.355E+01   -.414E+02 0.436E+02 0.273E+01   0.813E+00 -.183E+01 0.815E+00   0.639E-03 -.457E-03 0.173E-02
   0.251E+02 0.515E+02 -.163E+02   -.260E+02 -.539E+02 0.150E+02   0.850E+00 0.232E+01 0.124E+01   0.253E-02 0.447E-02 0.413E-02
   -.225E+02 0.764E+02 0.452E+01   0.236E+02 -.785E+02 -.369E+01   -.113E+01 0.212E+01 -.833E+00   -.259E-02 0.370E-03 -.346E-02
   -.253E+02 -.370E+02 0.534E+01   0.256E+02 0.384E+02 -.482E+01   -.288E+00 -.147E+01 -.518E+00   0.310E-02 0.344E-02 0.341E-02
   0.253E+02 -.370E+02 -.534E+01   -.256E+02 0.384E+02 0.482E+01   0.288E+00 -.147E+01 0.518E+00   -.310E-02 0.344E-02 -.341E-02
   0.246E+02 0.292E+02 -.733E+01   -.254E+02 -.304E+02 0.639E+01   0.850E+00 0.118E+01 0.941E+00   -.336E-02 -.842E-02 -.466E-02
   -.246E+02 0.292E+02 0.733E+01   0.254E+02 -.304E+02 -.639E+01   -.850E+00 0.118E+01 -.941E+00   0.336E-02 -.842E-02 0.466E-02
   -.195E+02 -.426E+02 0.147E+02   0.205E+02 0.445E+02 -.139E+02   -.989E+00 -.198E+01 -.786E+00   -.279E-02 0.923E-03 -.112E-02
   0.266E+02 -.402E+02 -.396E+01   -.278E+02 0.418E+02 0.350E+01   0.119E+01 -.159E+01 0.454E+00   -.166E-02 0.255E-02 -.161E-03
   0.153E+02 0.472E+02 0.254E+01   -.161E+02 -.487E+02 -.337E+01   0.773E+00 0.150E+01 0.831E+00   -.196E-02 -.529E-02 -.111E-02
   -.241E+02 0.589E+02 -.108E+01   0.252E+02 -.612E+02 0.168E+01   -.107E+01 0.229E+01 -.606E+00   0.199E-03 -.539E-02 0.312E-02
   -.533E+02 -.123E+02 0.706E+00   0.559E+02 0.124E+02 -.117E+01   -.262E+01 -.277E-01 0.464E+00   -.152E-02 0.260E-02 -.342E-02
   0.533E+02 -.123E+02 -.707E+00   -.559E+02 0.124E+02 0.117E+01   0.262E+01 -.277E-01 -.464E+00   0.152E-02 0.260E-02 0.342E-02
   -.442E+02 0.752E+01 -.180E+02   0.457E+02 -.776E+01 0.173E+02   -.152E+01 0.235E+00 0.721E+00   0.483E-03 0.134E-02 0.127E-02
   0.384E+02 0.753E+01 0.131E+02   -.399E+02 -.724E+01 -.128E+02   0.144E+01 -.297E+00 -.330E+00   0.219E-02 0.773E-03 -.192E-02
   0.870E+01 -.308E+02 -.572E+02   -.872E+01 0.308E+02 0.588E+02   0.263E-01 -.225E-01 -.157E+01   -.208E-02 -.225E-02 -.707E-02
   -.870E+01 -.308E+02 0.572E+02   0.872E+01 0.308E+02 -.588E+02   -.263E-01 -.225E-01 0.157E+01   0.208E-02 -.225E-02 0.707E-02
   -.562E+02 0.538E+01 -.172E+02   0.588E+02 -.502E+01 0.165E+02   -.264E+01 -.366E+00 0.747E+00   -.156E-02 -.321E-03 0.119E-02
   0.159E+02 0.637E+02 -.212E+02   -.167E+02 -.653E+02 0.226E+02   0.772E+00 0.160E+01 -.138E+01   0.181E-02 0.379E-02 -.384E-02
   -.546E+02 -.489E+01 -.141E+02   0.573E+02 0.473E+01 0.138E+02   -.273E+01 0.152E+00 0.296E+00   -.427E-02 -.107E-03 -.371E-03
   0.546E+02 -.489E+01 0.141E+02   -.573E+02 0.473E+01 -.138E+02   0.273E+01 0.152E+00 -.296E+00   0.427E-02 -.107E-03 0.371E-03
   -.384E+02 0.753E+01 -.131E+02   0.399E+02 -.724E+01 0.128E+02   -.144E+01 -.297E+00 0.330E+00   -.219E-02 0.773E-03 0.192E-02
   0.442E+02 0.752E+01 0.180E+02   -.457E+02 -.776E+01 -.173E+02   0.152E+01 0.235E+00 -.721E+00   -.483E-03 0.134E-02 -.127E-02
   -.540E+02 -.846E+01 -.243E+02   0.558E+02 0.844E+01 0.239E+02   -.178E+01 0.271E-01 0.409E+00   -.103E-02 -.213E-02 0.653E-04
   0.540E+02 -.846E+01 0.243E+02   -.558E+02 0.844E+01 -.239E+02   0.178E+01 0.271E-01 -.409E+00   0.103E-02 -.213E-02 -.653E-04
   -.159E+02 0.637E+02 0.212E+02   0.167E+02 -.653E+02 -.226E+02   -.772E+00 0.160E+01 0.138E+01   -.181E-02 0.379E-02 0.384E-02
   0.562E+02 0.538E+01 0.172E+02   -.588E+02 -.502E+01 -.165E+02   0.264E+01 -.366E+00 -.747E+00   0.156E-02 -.321E-03 -.119E-02
   -.770E+01 0.968E+01 0.129E+01   0.931E+01 -.106E+02 -.120E+01   -.161E+01 0.943E+00 -.915E-01   0.667E-03 0.954E-03 0.259E-03
   -.491E-06 -.221E+01 -.933E-06   -.359E-05 0.338E+01 -.688E-05   0.000E+00 -.118E+01 0.000E+00   -.134E-08 0.312E-03 0.144E-08
   -.288E+01 0.330E+01 -.366E+01   0.255E+01 -.346E+01 0.272E+01   0.330E+00 0.164E+00 0.938E+00   0.105E-02 -.153E-03 0.134E-03
   0.641E-06 -.272E+01 0.981E-06   0.469E-05 0.312E+01 0.720E-05   -.847E-21 -.396E+00 0.000E+00   0.879E-09 0.184E-03 -.147E-08
   0.770E+01 0.968E+01 -.129E+01   -.931E+01 -.106E+02 0.120E+01   0.161E+01 0.943E+00 0.915E-01   -.667E-03 0.954E-03 -.259E-03
   -.496E-06 0.277E+01 -.894E-06   -.363E-05 -.257E+01 -.657E-05   0.000E+00 -.189E+00 0.000E+00   -.212E-08 -.104E-02 0.238E-08
   0.288E+01 0.330E+01 0.366E+01   -.255E+01 -.346E+01 -.272E+01   -.330E+00 0.164E+00 -.938E+00   -.105E-02 -.153E-03 -.134E-03
   0.216E-07 -.124E+02 0.146E-05   0.124E-06 0.138E+02 0.109E-04   0.000E+00 -.136E+01 0.000E+00   0.527E-09 0.104E-02 0.125E-08
   0.463E+00 -.880E+01 0.276E+01   -.869E-01 0.790E+01 -.343E+01   -.377E+00 0.895E+00 0.675E+00   -.298E-04 -.110E-03 0.202E-03
   0.319E+01 0.466E+01 -.371E+00   -.271E+01 -.348E+01 0.577E+00   -.476E+00 -.119E+01 -.206E+00   -.841E-04 0.484E-04 0.184E-03
   -.310E+01 -.406E+01 -.470E+01   0.297E+01 0.396E+01 0.462E+01   0.135E+00 0.959E-01 0.785E-01   0.282E-03 0.232E-03 -.332E-04
   -.826E+00 0.105E+02 -.120E+01   0.777E+00 -.981E+01 0.121E+01   0.498E-01 -.694E+00 -.103E-01   0.199E-03 -.154E-03 0.169E-04
   -.463E+00 -.880E+01 -.276E+01   0.869E-01 0.790E+01 0.343E+01   0.377E+00 0.895E+00 -.675E+00   0.298E-04 -.110E-03 -.202E-03
   -.319E+01 0.466E+01 0.371E+00   0.271E+01 -.348E+01 -.577E+00   0.476E+00 -.119E+01 0.206E+00   0.841E-04 0.484E-04 -.184E-03
   0.170E+01 -.538E+01 -.349E+01   -.137E+01 0.503E+01 0.305E+01   -.329E+00 0.353E+00 0.441E+00   0.133E-03 -.896E-05 0.184E-03
   -.585E+00 -.721E-01 0.234E-02   0.564E-01 -.735E+00 -.306E+00   0.528E+00 0.807E+00 0.304E+00   0.146E-04 -.232E-04 0.135E-03
   -.133E+01 -.807E+01 0.844E+00   0.139E+01 0.741E+01 -.761E+00   -.588E-01 0.661E+00 -.823E-01   0.159E-03 0.189E-03 0.511E-04
   0.372E+00 0.816E+01 -.672E+00   -.399E+00 -.737E+01 0.660E+00   0.264E-01 -.784E+00 0.129E-01   0.176E-03 -.319E-03 -.364E-04
   -.170E+01 -.538E+01 0.349E+01   0.137E+01 0.503E+01 -.305E+01   0.329E+00 0.353E+00 -.441E+00   -.133E-03 -.896E-05 -.184E-03
   0.585E+00 -.721E-01 -.234E-02   -.564E-01 -.735E+00 0.306E+00   -.528E+00 0.807E+00 -.304E+00   -.146E-04 -.232E-04 -.135E-03
   0.133E+01 -.807E+01 -.844E+00   -.139E+01 0.741E+01 0.761E+00   0.588E-01 0.661E+00 0.823E-01   -.159E-03 0.189E-03 -.511E-04
   -.372E+00 0.816E+01 0.672E+00   0.399E+00 -.737E+01 -.660E+00   -.264E-01 -.784E+00 -.129E-01   -.176E-03 -.319E-03 0.364E-04
   0.310E+01 -.406E+01 0.470E+01   -.297E+01 0.396E+01 -.462E+01   -.135E+00 0.959E-01 -.785E-01   -.282E-03 0.232E-03 0.332E-04
   0.826E+00 0.105E+02 0.120E+01   -.777E+00 -.981E+01 -.121E+01   -.498E-01 -.694E+00 0.103E-01   -.199E-03 -.154E-03 -.169E-04
   0.464E+01 0.442E+01 0.442E+01   -.496E+01 -.334E+01 -.456E+01   0.317E+00 -.108E+01 0.138E+00   -.107E-03 -.191E-03 0.466E-04
   -.274E+01 0.625E+00 -.453E+00   0.265E+01 -.675E+00 0.342E+00   0.853E-01 0.500E-01 0.111E+00   -.343E-04 0.145E-03 -.393E-05
   -.547E+01 -.176E+01 -.415E+00   0.446E+01 0.182E+01 0.776E+00   0.101E+01 -.529E-01 -.360E+00   -.110E-03 0.664E-04 -.641E-04
   0.274E+01 0.625E+00 0.453E+00   -.265E+01 -.675E+00 -.342E+00   -.853E-01 0.500E-01 -.111E+00   0.343E-04 0.145E-03 0.393E-05
   0.547E+01 -.176E+01 0.415E+00   -.446E+01 0.182E+01 -.776E+00   -.101E+01 -.529E-01 0.360E+00   0.110E-03 0.664E-04 0.641E-04
   0.915E+00 0.198E+01 0.368E+00   -.784E+00 -.229E+01 -.288E-01   -.130E+00 0.314E+00 -.338E+00   0.420E-05 -.194E-04 -.752E-04
   -.464E+01 0.442E+01 -.442E+01   0.496E+01 -.334E+01 0.456E+01   -.317E+00 -.108E+01 -.138E+00   0.107E-03 -.191E-03 -.466E-04
   -.915E+00 0.198E+01 -.368E+00   0.784E+00 -.229E+01 0.288E-01   0.130E+00 0.314E+00 0.338E+00   -.420E-05 -.194E-04 0.752E-04
 -----------------------------------------------------------------------------------------------
   0.274E-03 0.262E+01 -.697E-03   -.697E-13 -.164E-13 -.217E-13   0.555E-16 -.263E+01 0.111E-15   -.425E-08 0.123E-01 0.611E-08
 
 
 POSITION                                       TOTAL-FORCE (eV/Angst)
 -----------------------------------------------------------------------------------
      1.01015      1.91641      1.91022        -0.001451     -0.000881      0.000992
      7.65709      1.91641      9.98433         0.001451     -0.000881     -0.000992
      7.77105      9.34120     10.18647        -0.002724      0.002242     -0.003560
      0.89619      9.34120      1.70808         0.002724      0.002242      0.003560
      4.19530      7.46036      1.64699         0.000840      0.002448      0.003076
     -2.65526      7.54872     10.69881        -0.001083      0.000175      0.000516
     -2.33499      4.07506     10.45040         0.001716      0.004182      0.001696
      4.22668      3.97393      1.60155        -0.000372      0.003523     -0.002231
     -1.49349      1.72030      7.74474        -0.000678     -0.001900      0.000453
     10.16073      1.72030      4.14982         0.000678     -0.001900     -0.000453
     10.07853      9.61316      4.15697        -0.000064     -0.001173     -0.000877
     -1.41128      9.61316      7.73759         0.000064     -0.001173      0.000877
      2.05190      7.46617      7.58708         0.000426      0.000104      0.001052
     -0.04129      7.39997      4.47240         0.000318     -0.003224      0.001511
     -0.08937      3.92546      4.63882        -0.000891     -0.000902      0.001306
      1.88058      4.01698      7.77084         0.000810     -0.000981      0.003176
      7.68201      1.76037      1.49615         0.001806      0.001425      0.000440
      0.98523      1.76037     10.39840        -0.001806      0.001425     -0.000440
      1.04741      9.71697     10.39267        -0.000001      0.000825      0.000214
      7.61983      9.71697      1.50189         0.000001      0.000825     -0.000214
     11.32251      7.54872      1.19575         0.001083      0.000175     -0.000516
      4.47194      7.46036     10.24756        -0.000840      0.002448     -0.003076
      4.44056      3.97393     10.29301         0.000372      0.003523      0.002231
     11.00223      4.07506      1.44416        -0.001716      0.004182     -0.001696
      5.08008      1.81237      7.57665        -0.001214     -0.000739     -0.001262
      3.58716      1.81237      4.31790         0.001214     -0.000739      0.001262
      3.37691      9.76011      4.19816        -0.000946     -0.000267     -0.001279
      5.29033      9.76011      7.69640         0.000946     -0.000267      0.001279
      8.70854      7.39997      7.42216        -0.000318     -0.003224     -0.001511
      6.61534      7.46617      4.30748        -0.000426      0.000104     -0.001052
      6.78666      4.01698      4.12371        -0.000810     -0.000981     -0.003176
      8.75661      3.92546      7.25574         0.000891     -0.000902     -0.001306
     -0.33352     11.32013      4.65045         0.001739     -0.003343      0.001292
      9.00076     11.32013      7.24410        -0.001739     -0.003343     -0.001292
      2.98597      5.62334      4.51293         0.001669     -0.000327     -0.001694
     -1.12465      5.88845      7.61726         0.001017     -0.000310      0.000638
     -2.53956     11.32804     10.68928        -0.000541     -0.000104      0.000521
     11.20680     11.32804      1.20527         0.000541     -0.000104     -0.000521
      0.60171      5.98251     10.66486         0.001236      0.001469      0.001078
      1.11857      5.82291      1.32630        -0.000127      0.001301     -0.001667
      6.45327     11.37233      4.59091         0.002182      0.000069     -0.000174
      2.21397     11.37233      7.30365        -0.002182      0.000069      0.000174
      9.79189      5.88845      4.27729        -0.001017     -0.000310     -0.000638
      5.68127      5.62334      7.38163        -0.001669     -0.000327      0.001694
      4.01387      0.04124     10.53352         0.001220      0.001741     -0.001348
      4.65337      0.04124      1.36104        -0.001220      0.001741      0.001348
      7.54867      5.82291     10.56826         0.000127      0.001301      0.001667
      8.06553      5.98251      1.22969        -0.001236      0.001469     -0.001078
      3.41180      5.68919     -0.00881        -0.002390     -0.006052      0.001600
     -2.39589      0.00327      6.08382         0.000000     -0.003546      0.000000
      0.95314      5.70850      6.07281        -0.003513      0.004300     -0.000935
      6.72951      0.04261     -0.13654        -0.000000     -0.000125      0.000000
      5.25544      5.68919     11.90337         0.002390     -0.006052     -0.001600
      4.33362     11.40125      5.94728        -0.000000      0.003642      0.000000
      7.71410      5.70850      5.82175         0.003513      0.004300      0.000935
      0.00000      7.78687     -0.00000         0.000000     -0.006746      0.000000
     12.36253      1.39702      2.48379        -0.000665     -0.002005      0.004075
     -3.43342      9.86954      9.15714        -0.000575     -0.002635      0.000352
      2.11011      7.61665      3.14899        -0.002204     -0.000609     -0.000005
     -0.19974      4.13599      9.15978         0.000882      0.003621      0.003729
     -3.69529      1.39702      9.41077         0.000665     -0.002005     -0.004075
     12.10066      9.86954      2.73742         0.000575     -0.002635     -0.000352
     -0.00925      7.76452      8.86639        -0.000022      0.001799     -0.000449
      1.99500      3.48289      3.28245        -0.000948      0.000075      0.000729
      5.72573      1.65099      3.02369         0.001150      0.001911      0.000216
      3.11742      9.80745      8.97947         0.000361      0.000363      0.000572
      8.67649      7.76452      3.02817         0.000022      0.001799      0.000449
      6.67225      3.48289      8.61211         0.000948      0.000075     -0.000729
      2.94151      1.65099      8.87086        -0.001150      0.001911     -0.000216
      5.54982      9.80745      2.91508        -0.000361      0.000363     -0.000572
      6.55713      7.61665      8.74556         0.002204     -0.000609      0.000005
      8.86698      4.13599      2.73477        -0.000882      0.003621     -0.003729
      2.45244      0.29928      2.63264        -0.000285      0.001110      0.001082
      5.20527      5.70073      3.12552        -0.001475     -0.000354      0.000250
     -0.67065      0.01249      9.35542        -0.000679     -0.000967      0.000894
      3.46197      5.70073      8.76903         0.001475     -0.000354     -0.000250
      9.33789      0.01249      2.53913         0.000679     -0.000967     -0.000894
     12.04651      5.57358      3.16744         0.000415     -0.002523      0.001198
      6.21480      0.29928      9.26191         0.000285      0.001110     -0.001082
     -3.37927      5.57358      8.72712        -0.000415     -0.002523     -0.001198
 -----------------------------------------------------------------------------------
    total drift:                                0.000274      0.001132     -0.000697


--------------------------------------------------------------------------------------------------------



  FREE ENERGIE OF THE ION-ELECTRON SYSTEM (eV)
  ---------------------------------------------------
  free  energy   TOTEN  =      -274.09816502 eV

  energy  without entropy=     -274.09816502  energy(sigma->0) =     -274.09816502
 
 d Force = 0.1452858E-04[-0.182E-05, 0.309E-04]  d Energy = 0.1185443E-04 0.267E-05
 d Force =-0.1922032E-01[-0.194E-01,-0.190E-01]  d Ewald  =-0.1922032E-01-0.196E-09


--------------------------------------------------------------------------------------------------------


    POTLOK:  cpu time    0.2912: real time    0.2914


--------------------------------------------------------------------------------------------------------




--------------------------------------------------------------------------------------------------------


    WAVPRE:  cpu time    0.0684: real time    0.0710
    FEWALD:  cpu time    0.0017: real time    0.0017
    ORTHCH:  cpu time    0.9016: real time    0.9026
     LOOP+:  cpu time   26.9063: real time   26.9658


--------------------------------------- Iteration     18(   1)  ---------------------------------------


    POTLOK:  cpu time    0.1292: real time    0.1329
    SETDIJ:  cpu time    0.1580: real time    0.1581
     EDDAV:  cpu time    5.2219: real time    5.2316
       DOS:  cpu time    0.0002: real time    0.0002
    CHARGE:  cpu time    0.2237: real time    0.2241
    MIXING:  cpu time    0.0037: real time    0.0037
    --------------------------------------------
      LOOP:  cpu time    5.7368: real time    5.7506

 eigenvalue-minimisations  :   480
 total energy-change (2. order) :-0.8865565E-05  (-0.1160590E-02)
 number of electron     384.0000001 magnetization 
 augmentation part      -49.4173569 magnetization 

 Broyden mixing:
  rms(total) = 0.20635E-02    rms(broyden)= 0.20632E-02
  rms(prec ) = 0.23843E-02
  weight for this iteration     100.00

 Free energy of the ion-electron system (eV)
  ---------------------------------------------------
  alpha Z        PSCENC =       310.04809462
  Ewald energy   TEWEN  =    -15411.08591901
  -Hartree energ DENC   =     -4575.30770265
  -exchange      EXHF   =         0.00000000
  -V(xc)+E(xc)   XCENC  =       447.05775469
  PAW double counting   =     11244.55035665   -10653.84382725
  entropy T*S    EENTRO =        -0.00000000
  eigenvalues    EBANDS =     -1859.77608745
  atomic energy  EATOM  =     20224.25915541
  Solvation  Ediel_sol  =         0.00000000
  ---------------------------------------------------
  free energy    TOTEN  =      -274.09817501 eV

  energy without entropy =     -274.09817501  energy(sigma->0) =     -274.09817501


--------------------------------------------------------------------------------------------------------




--------------------------------------- Iteration     18(   2)  ---------------------------------------


    POTLOK:  cpu time    0.1308: real time    0.1350
    SETDIJ:  cpu time    0.1641: real time    0.1642
     EDDAV:  cpu time    5.8142: real time    5.8210
       DOS:  cpu time    0.0002: real time    0.0002
    CHARGE:  cpu time    0.2241: real time    0.2243
    MIXING:  cpu time    0.0042: real time    0.0042
    --------------------------------------------
      LOOP:  cpu time    6.3377: real time    6.3489

 eigenvalue-minimisations  :   560
 total energy-change (2. order) :-0.5006963E-04  (-0.5523580E-04)
 number of electron     384.0000001 magnetization 
 augmentation part      -49.4174087 magnetization 

 Broyden mixing:
  rms(total) = 0.79651E-03    rms(broyden)= 0.79579E-03
  rms(prec ) = 0.10702E-02
  weight for this iteration     100.00

 eigenvalues of (default mixing * dielectric matrix)
  average eigenvalue GAMMA=   0.8834
  0.8834

 Free energy of the ion-electron system (eV)
  ---------------------------------------------------
  alpha Z        PSCENC =       310.04809462
  Ewald energy   TEWEN  =    -15411.08591901
  -Hartree energ DENC   =     -4575.30349706
  -exchange      EXHF   =         0.00000000
  -V(xc)+E(xc)   XCENC  =       447.05761980
  PAW double counting   =     11244.54637199   -10653.83980104
  entropy T*S    EENTRO =        -0.00000000
  eigenvalues    EBANDS =     -1859.78024978
  atomic energy  EATOM  =     20224.25915541
  Solvation  Ediel_sol  =         0.00000000
  ---------------------------------------------------
  free energy    TOTEN  =      -274.09822508 eV

  energy without entropy =     -274.09822508  energy(sigma->0) =     -274.09822508


--------------------------------------------------------------------------------------------------------




--------------------------------------- Iteration     18(   3)  ---------------------------------------


    POTLOK:  cpu time    0.1307: real time    0.1359
    SETDIJ:  cpu time    0.1577: real time    0.1578
     EDDAV:  cpu time    4.5034: real time    4.5078
       DOS:  cpu time    0.0002: real time    0.0002
    --------------------------------------------
      LOOP:  cpu time    4.7920: real time    4.8017

 eigenvalue-minimisations  :   400
 total energy-change (2. order) : 0.1044602E-05  (-0.9615807E-06)
 number of electron     384.0000001 magnetization 
 augmentation part      -49.4174087 magnetization 

 Free energy of the ion-electron system (eV)
  ---------------------------------------------------
  alpha Z        PSCENC =       310.04809462
  Ewald energy   TEWEN  =    -15411.08591901
  -Hartree energ DENC   =     -4575.30235485
  -exchange      EXHF   =         0.00000000
  -V(xc)+E(xc)   XCENC  =       447.05756003
  PAW double counting   =     11244.54476725   -10653.83817271
  entropy T*S    EENTRO =        -0.00000000
  eigenvalues    EBANDS =     -1859.78135477
  atomic energy  EATOM  =     20224.25915541
  Solvation  Ediel_sol  =         0.00000000
  ---------------------------------------------------
  free energy    TOTEN  =      -274.09822403 eV

  energy without entropy =     -274.09822403  energy(sigma->0) =     -274.09822403


--------------------------------------------------------------------------------------------------------




 average (electrostatic) potential at core
  the test charge radii are     0.9406  1.4837  0.9748
  (the norm of the test charge is              1.0000)
       1 -92.6769       2 -92.6770       3 -94.2200       4 -94.2200       5 -94.0898
       6 -94.7286       7 -94.1122       8 -94.0446       9 -93.5685      10 -93.5685
      11 -93.6643      12 -93.6643      13 -94.1634      14 -94.0187      15 -94.0145
      16 -94.1652      17 -93.9891      18 -93.9891      19 -93.9807      20 -93.9807
      21 -94.7286      22 -94.0898      23 -94.0446      24 -94.1121      25 -93.9987
      26 -93.9987      27 -94.0209      28 -94.0209      29 -94.0187      30 -94.1634
      31 -94.1651      32 -94.0145      33 -93.7017      34 -93.7017      35 -94.0658
      36 -94.1303      37 -92.5376      38 -92.5376      39 -94.0700      40 -94.6545
      41 -93.9806      42 -93.9806      43 -94.1303      44 -94.0658      45 -94.0818
      46 -94.0818      47 -94.6545      48 -94.0700      49 -41.9815      50 -41.5371
      51 -41.8885      52 -41.9106      53 -41.9815      54 -41.8081      55 -41.8885
      56 -42.2094      57 -27.8223      58 -28.1154      59 -28.7421      60 -28.7692
      61 -27.8223      62 -28.1154      63 -28.8962      64 -28.3774      65 -28.6611
      66 -28.6642      67 -28.8962      68 -28.3775      69 -28.6611      70 -28.6642
      71 -28.7421      72 -28.7692      73 -28.5143      74 -28.7533      75 -27.9701
      76 -28.7534      77 -27.9701      78 -28.8433      79 -28.5144      80 -28.8433
 
 
 
 E-fermi :   0.4226     XC(G=0):  -7.8727     alpha+bet : -7.9187


 k-point     1 :       0.0000    0.0000    0.0000
  band No.  band energies     occupation 
      1     -14.6444      2.00000
      2     -14.3826      2.00000
      3     -14.1664      2.00000
      4     -14.1434      2.00000
      5     -14.0823      2.00000
      6     -14.0605      2.00000
      7     -14.0433      2.00000
      8     -13.9212      2.00000
      9     -13.8710      2.00000
     10     -13.8337      2.00000
     11     -13.8066      2.00000
     12     -13.7729      2.00000
     13     -13.7457      2.00000
     14     -13.7315      2.00000
     15     -13.7217      2.00000
     16     -13.6816      2.00000
     17     -13.6780      2.00000
     18     -13.6604      2.00000
     19     -13.6480      2.00000
     20     -13.6011      2.00000
     21     -13.5967      2.00000
     22     -13.5833      2.00000
     23     -13.5802      2.00000
     24     -13.5540      2.00000
     25     -13.5458      2.00000
     26     -13.4997      2.00000
     27     -13.4916      2.00000
     28     -13.4593      2.00000
     29     -13.4533      2.00000
     30     -13.4456      2.00000
     31     -13.4124      2.00000
     32     -13.4085      2.00000
     33     -13.4026      2.00000
     34     -13.3799      2.00000
     35     -13.3589      2.00000
     36     -13.3437      2.00000
     37     -13.3212      2.00000
     38     -13.3026      2.00000
     39     -13.2866      2.00000
     40     -13.2766      2.00000
     41     -13.1724      2.00000
     42     -13.1191      2.00000
     43     -12.9589      2.00000
     44     -12.9303      2.00000
     45     -12.2845      2.00000
     46     -12.2619      2.00000
     47     -12.1440      2.00000
     48     -12.1391      2.00000
     49      -5.5950      2.00000
     50      -5.3095      2.00000
     51      -5.2587      2.00000
     52      -5.1498      2.00000
     53      -5.1226      2.00000
     54      -5.0937      2.00000
     55      -4.9936      2.00000
     56      -4.6689      2.00000
     57      -3.8647      2.00000
     58      -3.6785      2.00000
     59      -3.6767      2.00000
     60      -3.4815      2.00000
     61      -3.4225      2.00000
     62      -3.3918      2.00000
     63      -3.3913      2.00000
     64      -3.3670      2.00000
     65      -3.2695      2.00000
     66      -3.2497      2.00000
     67      -3.2287      2.00000
     68      -3.2282      2.00000
     69      -3.1794      2.00000
     70      -3.0651      2.00000
     71      -3.0419      2.00000
     72      -3.0110      2.00000
     73      -3.0060      2.00000
     74      -2.9718      2.00000
     75      -2.9574      2.00000
     76      -2.8977      2.00000
     77      -2.8230      2.00000
     78      -2.7603      2.00000
     79      -2.7413      2.00000
     80      -2.7346      2.00000
     81      -2.6560      2.00000
     82      -2.6208      2.00000
     83      -2.6149      2.00000
     84      -2.5938      2.00000
     85      -2.5666      2.00000
     86      -2.5534      2.00000
     87      -2.5025      2.00000
     88      -2.4557      2.00000
     89      -2.4126      2.00000
     90      -2.3918      2.00000
     91      -2.3669      2.00000
     92      -2.3513      2.00000
     93      -2.3236      2.00000
     94      -2.3147      2.00000
     95      -2.3067      2.00000
     96      -2.3049      2.00000
     97      -2.2547      2.00000
     98      -2.2217      2.00000
     99      -2.2184      2.00000
    100      -2.1940      2.00000
    101      -2.1642      2.00000
    102      -2.1448      2.00000
    103      -2.1213      2.00000
    104      -2.0647      2.00000
    105      -2.0194      2.00000
    106      -2.0037      2.00000
    107      -1.9701      2.00000
    108      -1.9543      2.00000
    109      -1.9309      2.00000
    110      -1.9112      2.00000
    111      -1.9024      2.00000
    112      -1.8895      2.00000
    113      -1.8567      2.00000
    114      -1.8238      2.00000
    115      -1.8223      2.00000
    116      -1.7924      2.00000
    117      -1.7773      2.00000
    118      -1.7213      2.00000
    119      -1.7025      2.00000
    120      -1.6866      2.00000
    121      -1.6765      2.00000
    122      -1.6757      2.00000
    123      -1.6484      2.00000
    124      -1.6421      2.00000
    125      -1.6114      2.00000
    126      -1.6078      2.00000
    127      -1.5816      2.00000
    128      -1.5586      2.00000
    129      -1.5514      2.00000
    130      -1.5287      2.00000
    131      -1.5202      2.00000
    132      -1.5137      2.00000
    133      -1.4906      2.00000
    134      -1.4643      2.00000
    135      -1.4476      2.00000
    136      -1.4406      2.00000
    137      -1.4322      2.00000
    138      -1.3921      2.00000
    139      -1.3906      2.00000
    140      -1.3807      2.00000
    141      -1.3506      2.00000
    142      -1.3496      2.00000
    143      -1.3331      2.00000
    144      -1.3324      2.00000
    145      -1.3077      2.00000
    146      -1.2990      2.00000
    147      -1.2808      2.00000
    148      -1.2684      2.00000
    149      -1.2544      2.00000
    150      -1.2430      2.00000
    151      -1.2278      2.00000
    152      -1.2103      2.00000
    153      -1.1960      2.00000
    154      -1.1811      2.00000
    155      -1.1793      2.00000
    156      -1.1592      2.00000
    157      -1.1489      2.00000
    158      -1.1196      2.00000
    159      -1.0971      2.00000
    160      -1.0830      2.00000
    161      -1.0819      2.00000
    162      -1.0756      2.00000
    163      -1.0605      2.00000
    164      -1.0558      2.00000
    165      -1.0146      2.00000
    166      -0.9937      2.00000
    167      -0.9809      2.00000
    168      -0.9735      2.00000
    169      -0.9471      2.00000
    170      -0.9321      2.00000
    171      -0.9212      2.00000
    172      -0.9065      2.00000
    173      -0.8802      2.00000
    174      -0.8643      2.00000
    175      -0.8316      2.00000
    176      -0.8028      2.00000
    177      -0.7953      2.00000
    178      -0.7610      2.00000
    179      -0.7538      2.00000
    180      -0.6717      2.00000
    181      -0.6686      2.00000
    182      -0.5970      2.00000
    183      -0.5959      2.00000
    184      -0.5219      2.00000
    185      -0.3584      2.00000
    186      -0.3534      2.00000
    187      -0.3372      2.00000
    188      -0.2719      2.00000
    189      -0.2377      2.00000
    190      -0.2227      2.00000
    191      -0.1584      2.00000
    192      -0.0629      2.00000
    193       2.4852      0.00000
    194       2.8029      0.00000
    195       2.8196      0.00000
    196       2.9406      0.00000
    197       3.1368      0.00000
    198       3.1478      0.00000
    199       3.2241      0.00000
    200       3.4326      0.00000
    201       5.6797      0.00000
    202       5.8150      0.00000
    203       5.9161      0.00000
    204       5.9629      0.00000
    205       6.0661      0.00000
    206       6.0781      0.00000
    207       6.1351      0.00000
    208       6.1845      0.00000
    209       6.2660      0.00000
    210       6.3695      0.00000
    211       6.4910      0.00000
    212       6.5360      0.00000
    213       6.6337      0.00000
    214       6.6423      0.00000
    215       6.6986      0.00000
    216       6.7451      0.00000
    217       6.8246      0.00000
    218       6.8387      0.00000
    219       6.9194      0.00000
    220       6.9724      0.00000
    221       6.9909      0.00000
    222       7.0527      0.00000
    223       7.1795      0.00000
    224       7.2357      0.00000
    225       7.2698      0.00000
    226       7.3660      0.00000
    227       7.4413      0.00000
    228       7.4626      0.00000
    229       7.5422      0.00000
    230       7.5564      0.00000
    231       7.6021      0.00000
    232       7.6952      0.00000
    233       7.7848      0.00000
    234       7.8043      0.00000
    235       7.8233      0.00000
    236       7.8758      0.00000
    237       7.8858      0.00000
    238       7.9046      0.00000
    239       7.9842      0.00000
    240       8.0088      0.00000


--------------------------------------------------------------------------------------------------------


 soft charge-density along one line, spin component           1
         0         1         2         3         4         5         6         7         8         9
 total charge-density along one line
 
 pseudopotential strength for first ion, spin component:           1
 47.402  -0.016  -0.003   0.019   0.003  -0.000   0.000   0.000
 -0.016   0.019  -0.000   0.000   0.000  -0.000   0.000   0.000
 -0.003  -0.000   9.108   0.000  -0.000   0.002  -0.000   0.000
  0.019   0.000   0.000   9.105   0.000  -0.000   0.002  -0.000
  0.003   0.000  -0.000   0.000   9.109   0.000  -0.000   0.002
 -0.000  -0.000   0.002  -0.000   0.000   0.035   0.000   0.000
  0.000   0.000  -0.000   0.002  -0.000   0.000   0.035   0.000
  0.000   0.000   0.000  -0.000   0.002   0.000   0.000   0.035
 total augmentation occupancy for first ion, spin component:           1
  1.911   0.427   0.009  -0.060  -0.010   0.011  -0.066  -0.012
  0.427   0.249  -0.053   0.334   0.058   0.013  -0.099  -0.024
  0.009  -0.053   1.759  -0.002   0.003  -0.398  -0.007   0.002
 -0.060   0.334  -0.002   1.797  -0.001  -0.007  -0.330  -0.010
 -0.010   0.058   0.003  -0.001   1.750   0.002  -0.010  -0.423
  0.011   0.013  -0.398  -0.007   0.002   0.101   0.003  -0.000
 -0.066  -0.099  -0.007  -0.330  -0.010   0.003   0.078   0.006
 -0.012  -0.024   0.002  -0.010  -0.423  -0.000   0.006   0.114


------------------------ aborting loop because EDIFF is reached ----------------------------------------


 


 total charge     
 
# of ion       s       p       d       tot
------------------------------------------
    1        1.589   3.591   0.000   5.180
    2        1.589   3.591   0.000   5.180
    3        1.599   3.535   0.000   5.134
    4        1.599   3.535   0.000   5.134
    5        1.598   3.544   0.000   5.142
    6        1.603   3.527   0.000   5.130
    7        1.598   3.539   0.000   5.137
    8        1.599   3.536   0.000   5.135
    9        1.597   3.539   0.000   5.136
   10        1.597   3.539   0.000   5.136
   11        1.594   3.555   0.000   5.149
   12        1.594   3.555   0.000   5.149
   13        1.597   3.549   0.000   5.145
   14        1.598   3.544   0.000   5.143
   15        1.599   3.543   0.000   5.142
   16        1.596   3.550   0.000   5.146
   17        1.597   3.544   0.000   5.140
   18        1.597   3.544   0.000   5.140
   19        1.595   3.548   0.000   5.144
   20        1.595   3.548   0.000   5.144
   21        1.603   3.527   0.000   5.130
   22        1.598   3.544   0.000   5.142
   23        1.599   3.536   0.000   5.135
   24        1.598   3.539   0.000   5.137
   25        1.596   3.561   0.000   5.156
   26        1.596   3.561   0.000   5.156
   27        1.596   3.546   0.000   5.142
   28        1.596   3.546   0.000   5.142
   29        1.598   3.544   0.000   5.143
   30        1.597   3.549   0.000   5.145
   31        1.596   3.550   0.000   5.146
   32        1.599   3.543   0.000   5.142
   33        1.599   3.539   0.000   5.139
   34        1.599   3.539   0.000   5.139
   35        1.596   3.552   0.000   5.148
   36        1.595   3.562   0.000   5.157
   37        1.590   3.591   0.000   5.181
   38        1.590   3.591   0.000   5.181
   39        1.599   3.537   0.000   5.136
   40        1.604   3.522   0.000   5.126
   41        1.600   3.541   0.000   5.140
   42        1.600   3.541   0.000   5.140
   43        1.595   3.562   0.000   5.157
   44        1.596   3.552   0.000   5.148
   45        1.596   3.557   0.000   5.153
   46        1.596   3.557   0.000   5.153
   47        1.604   3.522   0.000   5.126
   48        1.599   3.537   0.000   5.136
   49        0.975   1.144   0.373   2.492
   50        0.966   1.107   0.360   2.432
   51        0.971   1.149   0.383   2.503
   52        0.962   1.117   0.370   2.448
   53        0.975   1.144   0.373   2.492
   54        0.970   1.135   0.375   2.479
   55        0.971   1.149   0.383   2.503
   56        0.974   1.144   0.371   2.489
   57        0.071   0.129   0.000   0.200
   58        0.071   0.133   0.000   0.204
   59        0.056   0.102   0.000   0.158
   60        0.058   0.105   0.000   0.163
   61        0.071   0.129   0.000   0.200
   62        0.071   0.133   0.000   0.204
   63        0.056   0.101   0.000   0.157
   64        0.064   0.115   0.000   0.179
   65        0.061   0.110   0.000   0.171
   66        0.061   0.112   0.000   0.173
   67        0.056   0.101   0.000   0.157
   68        0.064   0.115   0.000   0.179
   69        0.061   0.110   0.000   0.171
   70        0.061   0.112   0.000   0.173
   71        0.056   0.102   0.000   0.158
   72        0.058   0.105   0.000   0.163
   73        0.062   0.110   0.000   0.172
   74        0.060   0.107   0.000   0.167
   75        0.068   0.126   0.000   0.195
   76        0.060   0.107   0.000   0.167
   77        0.068   0.126   0.000   0.195
   78        0.060   0.107   0.000   0.168
   79        0.062   0.110   0.000   0.172
   80        0.060   0.107   0.000   0.168
--------------------------------------------------
tot         85.917 182.110   2.986 271.013
 
    CHARGE:  cpu time    0.2225: real time    0.2226
    FORLOC:  cpu time    0.0568: real time    0.0568
    FORNL :  cpu time    1.4313: real time    1.4326
    STRESS:  cpu time    7.0417: real time    7.0458
    FORCOR:  cpu time    0.1678: real time    0.1679
    FORHAR:  cpu time    0.0811: real time    0.0811
    MIXING:  cpu time    0.0038: real time    0.0038
    OFIELD:  cpu time    0.0000: real time    0.0000

  FORCE on cell =-STRESS in cart. coord.  units (eV):
  Direction    XX          YY          ZZ          XY          YZ          ZX
  --------------------------------------------------------------------------------------
  Alpha Z   310.04809   310.04809   310.04809
  Ewald   -5105.44535 -5450.79254 -4854.93776    -0.00000    -0.00000    23.12536
  Hartree  1545.09967  1337.25779  1692.94059    -0.00000     0.00000     8.15318
  E(xc)   -1403.68489 -1403.60008 -1405.06404     0.00000     0.00000     0.16002
  Local   -4340.04288 -3802.04390 -4720.85730    -0.00000     0.00000   -32.77444
  n-local  4204.08093  4200.79066  4209.64759    -0.00000     0.00000     0.20958
  augment  -980.06289  -981.10109  -979.49525    -0.00000     0.00000    -0.09357
  Kinetic  5770.93212  5792.58050  5748.40877     0.00001     0.00000     1.36041
  Fock        0.00000     0.00000     0.00000     0.00000     0.00000     0.00000
  -------------------------------------------------------------------------------------
  Total       0.92482     3.13943     0.69071     0.00000     0.00000     0.14054
  in kB       0.79615     2.70265     0.59461     0.00000     0.00000     0.12098
  external pressure =        1.36 kB  Pullay stress =        0.00 kB


 VOLUME and BASIS-vectors are now :
 -----------------------------------------------------------------------------
  energy-cutoff  :      520.00
  volume of cell :     1861.11
      direct lattice vectors                 reciprocal lattice vectors
    13.459017910  0.000000000 -0.273085008     0.074898101  0.000000000  0.029495859
     0.000000000 11.456071877  0.000000000     0.000000000  0.087289955  0.000000000
    -4.791777054  0.000000000 12.167640179     0.001680979  0.000000000  0.082847197

  length of vectors
    13.461788088 11.456071877 13.077178399     0.080496777  0.087289955  0.082864248


 FORCES acting on ions
    electron-ion (+dipol)            ewald-force                    non-local-force                 convergence-correction
 -----------------------------------------------------------------------------------------------
   0.141E+02 0.701E+01 0.548E+02   -.143E+02 -.680E+01 -.563E+02   0.168E+00 -.213E+00 0.144E+01   0.601E-02 0.433E-02 0.136E-02
   -.141E+02 0.701E+01 -.548E+02   0.143E+02 -.680E+01 0.563E+02   -.168E+00 -.213E+00 -.144E+01   -.601E-02 0.433E-02 -.136E-02
   0.218E+02 -.724E+02 0.132E+01   -.228E+02 0.745E+02 -.295E+01   0.108E+01 -.213E+01 0.162E+01   0.463E-02 -.373E-02 0.640E-02
   -.218E+02 -.724E+02 -.132E+01   0.228E+02 0.745E+02 0.295E+01   -.108E+01 -.213E+01 -.162E+01   -.463E-02 -.373E-02 -.640E-02
   -.405E+02 -.417E+02 0.360E+01   0.413E+02 0.435E+02 -.278E+01   -.815E+00 -.184E+01 -.820E+00   -.242E-02 -.477E-02 -.647E-02
   -.325E+02 -.386E+02 0.273E+02   0.335E+02 0.395E+02 -.288E+02   -.996E+00 -.928E+00 0.146E+01   0.200E-02 -.135E-02 -.734E-03
   0.225E+02 0.764E+02 -.449E+01   -.236E+02 -.785E+02 0.367E+01   0.113E+01 0.212E+01 0.829E+00   -.190E-02 -.697E-02 -.555E-03
   -.251E+02 0.516E+02 0.162E+02   0.260E+02 -.539E+02 -.150E+02   -.848E+00 0.231E+01 -.123E+01   -.272E-02 -.343E-02 0.703E-03
   -.184E+02 -.454E+02 -.268E+01   0.192E+02 0.471E+02 0.355E+01   -.727E+00 -.178E+01 -.877E+00   0.263E-02 0.731E-02 0.156E-02
   0.184E+02 -.454E+02 0.267E+01   -.192E+02 0.471E+02 -.355E+01   0.727E+00 -.178E+01 0.877E+00   -.263E-02 0.731E-02 -.156E-02
   0.217E+02 0.263E+02 -.682E+01   -.221E+02 -.274E+02 0.660E+01   0.485E+00 0.107E+01 0.221E+00   0.170E-02 0.277E-02 0.165E-02
   -.217E+02 0.263E+02 0.682E+01   0.221E+02 -.274E+02 -.660E+01   -.485E+00 0.107E+01 -.221E+00   -.170E-02 0.277E-02 -.165E-02
   -.266E+02 -.402E+02 0.398E+01   0.278E+02 0.418E+02 -.352E+01   -.119E+01 -.159E+01 -.456E+00   -.161E-03 0.162E-02 -.200E-02
   0.195E+02 -.426E+02 -.147E+02   -.205E+02 0.445E+02 0.139E+02   0.988E+00 -.197E+01 0.783E+00   0.479E-03 0.476E-02 -.137E-02
   0.241E+02 0.589E+02 0.109E+01   -.252E+02 -.612E+02 -.169E+01   0.107E+01 0.229E+01 0.605E+00   0.101E-02 -.350E-02 -.405E-02
   -.153E+02 0.472E+02 -.251E+01   0.160E+02 -.487E+02 0.335E+01   -.774E+00 0.150E+01 -.836E+00   -.288E-03 -.133E-02 -.441E-02
   -.249E+02 -.492E+02 0.723E+01   0.259E+02 0.507E+02 -.635E+01   -.990E+00 -.155E+01 -.880E+00   -.971E-03 0.127E-02 0.132E-02
   0.249E+02 -.492E+02 -.723E+01   -.259E+02 0.507E+02 0.635E+01   0.990E+00 -.155E+01 0.880E+00   0.971E-03 0.127E-02 -.132E-02
   0.186E+02 0.361E+02 -.701E+01   -.194E+02 -.376E+02 0.640E+01   0.785E+00 0.145E+01 0.619E+00   -.677E-03 -.476E-02 -.265E-02
   -.186E+02 0.361E+02 0.701E+01   0.194E+02 -.376E+02 -.640E+01   -.785E+00 0.145E+01 -.619E+00   0.677E-03 -.476E-02 0.265E-02
   0.325E+02 -.386E+02 -.273E+02   -.335E+02 0.395E+02 0.288E+02   0.996E+00 -.928E+00 -.146E+01   -.200E-02 -.135E-02 0.734E-03
   0.405E+02 -.417E+02 -.360E+01   -.413E+02 0.435E+02 0.278E+01   0.815E+00 -.184E+01 0.820E+00   0.242E-02 -.477E-02 0.647E-02
   0.251E+02 0.516E+02 -.162E+02   -.260E+02 -.539E+02 0.150E+02   0.848E+00 0.231E+01 0.123E+01   0.272E-02 -.343E-02 -.703E-03
   -.225E+02 0.764E+02 0.450E+01   0.236E+02 -.785E+02 -.367E+01   -.113E+01 0.212E+01 -.829E+00   0.190E-02 -.697E-02 0.555E-03
   -.253E+02 -.370E+02 0.530E+01   0.256E+02 0.385E+02 -.479E+01   -.286E+00 -.147E+01 -.515E+00   0.454E-02 0.548E-02 0.589E-02
   0.253E+02 -.370E+02 -.530E+01   -.256E+02 0.385E+02 0.479E+01   0.286E+00 -.147E+01 0.515E+00   -.454E-02 0.548E-02 -.589E-02
   0.246E+02 0.293E+02 -.733E+01   -.254E+02 -.304E+02 0.639E+01   0.852E+00 0.118E+01 0.943E+00   -.103E-02 -.629E-02 -.109E-02
   -.246E+02 0.293E+02 0.733E+01   0.254E+02 -.304E+02 -.639E+01   -.852E+00 0.118E+01 -.943E+00   0.103E-02 -.629E-02 0.109E-02
   -.195E+02 -.426E+02 0.147E+02   0.205E+02 0.445E+02 -.139E+02   -.988E+00 -.197E+01 -.783E+00   -.479E-03 0.476E-02 0.137E-02
   0.266E+02 -.402E+02 -.398E+01   -.278E+02 0.418E+02 0.352E+01   0.119E+01 -.159E+01 0.456E+00   0.161E-03 0.162E-02 0.200E-02
   0.153E+02 0.472E+02 0.251E+01   -.160E+02 -.487E+02 -.335E+01   0.774E+00 0.150E+01 0.836E+00   0.288E-03 -.133E-02 0.441E-02
   -.241E+02 0.589E+02 -.109E+01   0.252E+02 -.612E+02 0.169E+01   -.107E+01 0.229E+01 -.605E+00   -.101E-02 -.350E-02 0.405E-02
   -.532E+02 -.124E+02 0.733E+00   0.559E+02 0.124E+02 -.119E+01   -.262E+01 -.251E-01 0.462E+00   -.389E-02 0.522E-02 -.344E-02
   0.532E+02 -.124E+02 -.734E+00   -.559E+02 0.124E+02 0.119E+01   0.262E+01 -.251E-01 -.462E+00   0.389E-02 0.522E-02 0.344E-02
   -.442E+02 0.754E+01 -.180E+02   0.457E+02 -.777E+01 0.173E+02   -.152E+01 0.235E+00 0.724E+00   -.377E-02 0.100E-02 0.387E-02
   0.384E+02 0.755E+01 0.131E+02   -.399E+02 -.725E+01 -.128E+02   0.144E+01 -.297E+00 -.330E+00   -.387E-03 0.109E-02 -.254E-02
   0.872E+01 -.308E+02 -.572E+02   -.874E+01 0.308E+02 0.588E+02   0.257E-01 -.242E-01 -.157E+01   -.130E-02 -.884E-03 -.669E-02
   -.872E+01 -.308E+02 0.572E+02   0.874E+01 0.308E+02 -.588E+02   -.257E-01 -.242E-01 0.157E+01   0.130E-02 -.884E-03 0.669E-02
   -.562E+02 0.536E+01 -.172E+02   0.588E+02 -.500E+01 0.165E+02   -.264E+01 -.367E+00 0.747E+00   -.296E-02 -.677E-03 0.572E-04
   0.159E+02 0.637E+02 -.212E+02   -.167E+02 -.653E+02 0.226E+02   0.774E+00 0.159E+01 -.138E+01   0.133E-02 -.388E-03 -.933E-03
   -.545E+02 -.489E+01 -.141E+02   0.573E+02 0.474E+01 0.138E+02   -.273E+01 0.152E+00 0.295E+00   -.665E-02 -.325E-03 -.106E-03
   0.545E+02 -.489E+01 0.141E+02   -.573E+02 0.474E+01 -.138E+02   0.273E+01 0.152E+00 -.295E+00   0.665E-02 -.325E-03 0.106E-03
   -.384E+02 0.755E+01 -.131E+02   0.399E+02 -.725E+01 0.128E+02   -.144E+01 -.297E+00 0.330E+00   0.387E-03 0.109E-02 0.254E-02
   0.442E+02 0.754E+01 0.180E+02   -.457E+02 -.777E+01 -.173E+02   0.152E+01 0.235E+00 -.724E+00   0.377E-02 0.100E-02 -.387E-02
   -.540E+02 -.847E+01 -.243E+02   0.557E+02 0.845E+01 0.239E+02   -.178E+01 0.249E-01 0.410E+00   -.342E-02 -.259E-02 0.220E-02
   0.540E+02 -.847E+01 0.243E+02   -.557E+02 0.845E+01 -.239E+02   0.178E+01 0.249E-01 -.410E+00   0.342E-02 -.259E-02 -.220E-02
   -.159E+02 0.637E+02 0.212E+02   0.167E+02 -.653E+02 -.226E+02   -.774E+00 0.159E+01 0.138E+01   -.133E-02 -.388E-03 0.933E-03
   0.562E+02 0.536E+01 0.172E+02   -.588E+02 -.500E+01 -.165E+02   0.264E+01 -.367E+00 -.747E+00   0.296E-02 -.677E-03 -.572E-04
   -.771E+01 0.965E+01 0.129E+01   0.931E+01 -.106E+02 -.120E+01   -.160E+01 0.953E+00 -.912E-01   -.734E-03 -.143E-03 0.575E-03
   -.491E-06 -.221E+01 -.933E-06   -.359E-05 0.339E+01 -.688E-05   0.000E+00 -.118E+01 0.000E+00   -.178E-08 -.320E-03 0.163E-08
   -.291E+01 0.331E+01 -.366E+01   0.257E+01 -.347E+01 0.272E+01   0.336E+00 0.159E+00 0.940E+00   0.384E-03 0.211E-03 -.316E-03
   0.640E-06 -.273E+01 0.981E-06   0.469E-05 0.312E+01 0.720E-05   0.000E+00 -.395E+00 0.000E+00   0.597E-09 0.290E-03 -.866E-09
   0.771E+01 0.965E+01 -.129E+01   -.931E+01 -.106E+02 0.120E+01   0.160E+01 0.953E+00 0.912E-01   0.734E-03 -.143E-03 -.575E-03
   -.494E-06 0.278E+01 -.894E-06   -.362E-05 -.259E+01 -.657E-05   0.000E+00 -.192E+00 0.000E+00   -.183E-08 -.279E-03 0.204E-08
   0.291E+01 0.331E+01 0.366E+01   -.257E+01 -.347E+01 -.272E+01   -.336E+00 0.159E+00 -.940E+00   -.384E-03 0.211E-03 0.316E-03
   0.221E-07 -.124E+02 0.146E-05   0.128E-06 0.138E+02 0.109E-04   0.000E+00 -.135E+01 0.000E+00   0.137E-09 -.168E-03 0.150E-08
   0.463E+00 -.880E+01 0.275E+01   -.867E-01 0.790E+01 -.342E+01   -.377E+00 0.894E+00 0.675E+00   -.753E-04 0.227E-03 0.971E-04
   0.318E+01 0.465E+01 -.375E+00   -.271E+01 -.347E+01 0.581E+00   -.475E+00 -.118E+01 -.205E+00   0.789E-04 -.710E-04 -.551E-04
   -.310E+01 -.405E+01 -.471E+01   0.297E+01 0.396E+01 0.463E+01   0.135E+00 0.956E-01 0.791E-01   -.172E-03 -.193E-03 0.855E-04
   -.824E+00 0.105E+02 -.120E+01   0.776E+00 -.982E+01 0.121E+01   0.497E-01 -.695E+00 -.107E-01   -.247E-03 -.176E-03 -.690E-04
   -.463E+00 -.880E+01 -.275E+01   0.867E-01 0.790E+01 0.342E+01   0.377E+00 0.894E+00 -.675E+00   0.753E-04 0.227E-03 -.971E-04
   -.318E+01 0.465E+01 0.375E+00   0.271E+01 -.347E+01 -.581E+00   0.475E+00 -.118E+01 0.205E+00   -.789E-04 -.710E-04 0.551E-04
   0.170E+01 -.538E+01 -.350E+01   -.137E+01 0.503E+01 0.306E+01   -.329E+00 0.353E+00 0.441E+00   -.748E-04 0.121E-04 -.620E-04
   -.585E+00 -.597E-01 0.636E-02   0.557E-01 -.747E+00 -.309E+00   0.528E+00 0.805E+00 0.303E+00   -.337E-04 -.353E-05 -.124E-03
   -.132E+01 -.807E+01 0.843E+00   0.139E+01 0.741E+01 -.760E+00   -.588E-01 0.660E+00 -.820E-01   -.916E-04 0.225E-03 -.862E-04
   0.375E+00 0.815E+01 -.672E+00   -.401E+00 -.737E+01 0.660E+00   0.261E-01 -.783E+00 0.128E-01   -.552E-04 -.126E-03 -.910E-05
   -.170E+01 -.538E+01 0.350E+01   0.137E+01 0.503E+01 -.306E+01   0.329E+00 0.353E+00 -.441E+00   0.748E-04 0.121E-04 0.620E-04
   0.585E+00 -.597E-01 -.636E-02   -.557E-01 -.747E+00 0.309E+00   -.528E+00 0.805E+00 -.303E+00   0.337E-04 -.353E-05 0.124E-03
   0.132E+01 -.807E+01 -.843E+00   -.139E+01 0.741E+01 0.760E+00   0.588E-01 0.660E+00 0.820E-01   0.916E-04 0.225E-03 0.862E-04
   -.375E+00 0.815E+01 0.672E+00   0.401E+00 -.737E+01 -.660E+00   -.261E-01 -.783E+00 -.128E-01   0.552E-04 -.126E-03 0.910E-05
   0.310E+01 -.405E+01 0.471E+01   -.297E+01 0.396E+01 -.463E+01   -.135E+00 0.956E-01 -.791E-01   0.172E-03 -.193E-03 -.855E-04
   0.824E+00 0.105E+02 0.120E+01   -.776E+00 -.982E+01 -.121E+01   -.497E-01 -.695E+00 0.107E-01   0.247E-03 -.176E-03 0.690E-04
   0.465E+01 0.441E+01 0.442E+01   -.496E+01 -.333E+01 -.456E+01   0.317E+00 -.108E+01 0.138E+00   -.747E-04 0.333E-03 0.114E-04
   -.274E+01 0.626E+00 -.455E+00   0.265E+01 -.676E+00 0.344E+00   0.857E-01 0.500E-01 0.112E+00   -.109E-03 -.992E-04 0.438E-04
   -.546E+01 -.176E+01 -.416E+00   0.445E+01 0.182E+01 0.777E+00   0.101E+01 -.530E-01 -.360E+00   -.191E-03 0.617E-04 -.693E-04
   0.274E+01 0.626E+00 0.455E+00   -.265E+01 -.676E+00 -.344E+00   -.857E-01 0.500E-01 -.112E+00   0.109E-03 -.992E-04 -.438E-04
   0.546E+01 -.176E+01 0.416E+00   -.445E+01 0.182E+01 -.777E+00   -.101E+01 -.530E-01 0.360E+00   0.191E-03 0.617E-04 0.693E-04
   0.917E+00 0.198E+01 0.372E+00   -.786E+00 -.229E+01 -.321E-01   -.131E+00 0.315E+00 -.338E+00   0.749E-04 -.703E-04 -.713E-04
   -.465E+01 0.441E+01 -.442E+01   0.496E+01 -.333E+01 0.456E+01   -.317E+00 -.108E+01 -.138E+00   0.747E-04 0.333E-03 -.114E-04
   -.917E+00 0.198E+01 -.372E+00   0.786E+00 -.229E+01 0.321E-01   0.131E+00 0.315E+00 0.338E+00   -.749E-04 -.703E-04 0.713E-04
 -----------------------------------------------------------------------------------------------
   0.274E-03 0.264E+01 -.697E-03   -.492E-13 -.374E-12 0.139E-12   -.971E-15 -.263E+01 0.000E+00   -.315E-08 -.124E-01 0.378E-08
 
 
 POSITION                                       TOTAL-FORCE (eV/Angst)
 -----------------------------------------------------------------------------------
      1.00980      1.91625      1.91021        -0.000442     -0.000060      0.002712
      7.65744      1.91625      9.98435         0.000442     -0.000060     -0.002712
      7.77075      9.34134     10.18612        -0.000444     -0.000571     -0.000010
      0.89649      9.34134      1.70844         0.000444     -0.000571      0.000010
      4.19539      7.46063      1.64739        -0.000439      0.000107      0.000349
     -2.65542      7.54872     10.69883        -0.000508      0.000592      0.001290
     -2.33493      4.07549     10.45039         0.001051      0.001719      0.000919
      4.22677      3.97409      1.60150         0.000170      0.002016     -0.001091
     -1.49364      1.71990      7.74473        -0.000859     -0.001299      0.000462
     10.16088      1.71990      4.14982         0.000859     -0.001299     -0.000462
     10.07850      9.61300      4.15688         0.000018     -0.001417     -0.001447
     -1.41126      9.61300      7.73767        -0.000018     -0.001417      0.001447
      2.05189      7.46605      7.58719         0.000856      0.000739      0.000662
     -0.04138      7.39958      4.47248        -0.000196     -0.000313     -0.000190
     -0.08946      3.92558      4.63914        -0.000566     -0.002589      0.000654
      1.88055      4.01713      7.77113         0.000691     -0.000906      0.001956
      7.68216      1.76032      1.49603         0.001765      0.002465      0.001081
      0.98508      1.76032     10.39853        -0.001765      0.002465     -0.001081
      1.04747      9.71729     10.39280        -0.000354     -0.000594     -0.000440
      7.61977      9.71729      1.50176         0.000354     -0.000594      0.000440
     11.32266      7.54872      1.19573         0.000508      0.000592     -0.001290
      4.47185      7.46063     10.24717         0.000439      0.000107     -0.000349
      4.44047      3.97409     10.29305        -0.000170      0.002016      0.001091
     11.00217      4.07549      1.44416        -0.001051      0.001719     -0.000919
      5.07983      1.81217      7.57640         0.000259      0.001582      0.000634
      3.58741      1.81217      4.31815        -0.000259      0.001582     -0.000634
      3.37695      9.76045      4.19823        -0.001215     -0.001576     -0.001490
      5.29029      9.76045      7.69633         0.001215     -0.001576      0.001490
      8.70862      7.39958      7.42207         0.000196     -0.000313      0.000190
      6.61535      7.46605      4.30737        -0.000856      0.000739     -0.000662
      6.78669      4.01713      4.12343        -0.000691     -0.000906     -0.001956
      8.75670      3.92558      7.25542         0.000566     -0.002589     -0.000654
     -0.33327     11.31961      4.65075         0.000736     -0.002918      0.000372
      9.00051     11.31961      7.24380        -0.000736     -0.002918     -0.000372
      2.98611      5.62326      4.51272         0.000258     -0.000147     -0.000216
     -1.12462      5.88838      7.61743         0.000800      0.000055      0.000757
     -2.53957     11.32811     10.68960        -0.001428     -0.000969     -0.001679
     11.20681     11.32811      1.20495         0.001428     -0.000969      0.001679
      0.60192      5.98273     10.66497        -0.001337      0.001219      0.002774
      1.11846      5.82286      1.32633         0.000405      0.001035     -0.000653
      6.45369     11.37234      4.59091        -0.000077     -0.000014     -0.000139
      2.21355     11.37234      7.30364         0.000077     -0.000014      0.000139
      9.79186      5.88838      4.27712        -0.000800      0.000055     -0.000757
      5.68113      5.62326      7.38184        -0.000258     -0.000147      0.000216
      4.01402      0.04154     10.53336         0.000155      0.001217     -0.000871
      4.65322      0.04154      1.36120        -0.000155      0.001217      0.000871
      7.54878      5.82286     10.56822        -0.000405      0.001035      0.000653
      8.06532      5.98273      1.22959         0.001337      0.001219     -0.002774
      3.41162      5.68892     -0.00862         0.000453     -0.001694      0.001261
     -2.39589      0.00290      6.08382         0.000000     -0.003718     -0.000000
      0.95302      5.70873      6.07281        -0.001492      0.002830      0.000965
      6.72951      0.04273     -0.13654         0.000000     -0.000000     -0.000000
      5.25562      5.68892     11.90317        -0.000453     -0.001694     -0.001261
      4.33362     11.40134      5.94728         0.000000      0.002960     -0.000000
      7.71422      5.70873      5.82174         0.001492      0.002830     -0.000965
      0.00000      7.78659     -0.00000         0.000000     -0.001238     -0.000000
     12.36245      1.39677      2.48446        -0.000825     -0.002772      0.003435
     -3.43360      9.86903      9.15715        -0.000193     -0.001133      0.001313
      2.10986      7.61663      3.14897        -0.001498     -0.000331     -0.000110
     -0.19952      4.13650      9.16033         0.001405      0.003709      0.003441
     -3.69521      1.39677      9.41009         0.000825     -0.002772     -0.003435
     12.10084      9.86903      2.73740         0.000193     -0.001133     -0.001313
     -0.00920      7.76480      8.86636        -0.000057      0.001558     -0.000283
      1.99488      3.48301      3.28267        -0.001250     -0.000949      0.000298
      5.72594      1.65135      3.02371         0.001389      0.001060      0.000645
      3.11753      9.80739      8.97955         0.000298      0.001099      0.000510
      8.67644      7.76480      3.02819         0.000057      0.001558      0.000283
      6.67236      3.48301      8.61189         0.001250     -0.000949     -0.000298
      2.94130      1.65135      8.87085        -0.001389      0.001060     -0.000645
      5.54971      9.80739      2.91501        -0.000298      0.001099     -0.000510
      6.55738      7.61663      8.74559         0.001498     -0.000331      0.000110
      8.86676      4.13650      2.73422        -0.001405      0.003709     -0.003441
      2.45242      0.29931      2.63284        -0.000437      0.001203      0.000723
      5.20506      5.70072      3.12557        -0.001290      0.000024      0.000362
     -0.67071      0.01237      9.35552        -0.000828     -0.000950      0.001234
      3.46218      5.70072      8.76898         0.001290      0.000024     -0.000362
      9.33795      0.01237      2.53903         0.000828     -0.000950     -0.001234
     12.04660      5.57318      3.16761        -0.000031     -0.002031      0.001207
      6.21482      0.29931      9.26171         0.000437      0.001203     -0.000723
     -3.37936      5.57318      8.72694         0.000031     -0.002031     -0.001207
 -----------------------------------------------------------------------------------
    total drift:                                0.000274     -0.001506     -0.000697


--------------------------------------------------------------------------------------------------------



  FREE ENERGIE OF THE ION-ELECTRON SYSTEM (eV)
  ---------------------------------------------------
  free  energy   TOTEN  =      -274.09822403 eV

  energy  without entropy=     -274.09822403  energy(sigma->0) =     -274.09822403
 
 d Force = 0.5448748E-04[ 0.347E-04, 0.743E-04]  d Energy = 0.5901147E-04-0.452E-05
 d Force =-0.3407227E-01[-0.343E-01,-0.338E-01]  d Ewald  =-0.3407149E-01-0.775E-06


--------------------------------------------------------------------------------------------------------


    POTLOK:  cpu time    0.2910: real time    0.2910


--------------------------------------------------------------------------------------------------------


 Conjugate gradient step on ions:
 trial-energy change:   -0.000059  1 .order   -0.000054   -0.000074   -0.000035
  (g-gl).g = 0.383E-04      g.g   = 0.366E-04  gl.gl    = 0.818E-04
 g(Force)  = 0.366E-04   g(Stress)= 0.000E+00 ortho     =-0.173E-05
 gamma     =   0.46816
 trial     =   2.07880
 opt step  =   3.89776  (harmonic =   3.89776) maximal distance =0.00126755
 next E    =  -274.098235   (d E  =  -0.00007)


--------------------------------------------------------------------------------------------------------


    WAVPRE:  cpu time    0.0690: real time    0.0709
    FEWALD:  cpu time    0.0016: real time    0.0016
    ORTHCH:  cpu time    0.8999: real time    0.9003
     LOOP+:  cpu time   27.3115: real time   27.3556


--------------------------------------- Iteration     19(   1)  ---------------------------------------


    POTLOK:  cpu time    0.1304: real time    0.1331
    SETDIJ:  cpu time    0.1578: real time    0.1578
     EDDAV:  cpu time    5.1463: real time    5.1524
       DOS:  cpu time    0.0002: real time    0.0002
    CHARGE:  cpu time    0.2236: real time    0.2237
    MIXING:  cpu time    0.0045: real time    0.0046
    --------------------------------------------
      LOOP:  cpu time    5.6628: real time    5.6720

 eigenvalue-minimisations  :   480
 total energy-change (2. order) : 0.1740661E-04  (-0.8725789E-03)
 number of electron     384.0000001 magnetization 
 augmentation part      -49.4173847 magnetization 

 Broyden mixing:
  rms(total) = 0.17988E-02    rms(broyden)= 0.17986E-02
  rms(prec ) = 0.20766E-02
  weight for this iteration     100.00

 Free energy of the ion-electron system (eV)
  ---------------------------------------------------
  alpha Z        PSCENC =       310.04809462
  Ewald energy   TEWEN  =    -15411.05567203
  -Hartree energ DENC   =     -4575.33486043
  -exchange      EXHF   =         0.00000000
  -V(xc)+E(xc)   XCENC  =       447.05748022
  PAW double counting   =     11244.54083584   -10653.83417330
  entropy T*S    EENTRO =        -0.00000000
  eigenvalues    EBANDS =     -1859.77906799
  atomic energy  EATOM  =     20224.25915541
  Solvation  Ediel_sol  =         0.00000000
  ---------------------------------------------------
  free energy    TOTEN  =      -274.09820767 eV

  energy without entropy =     -274.09820767  energy(sigma->0) =     -274.09820767


--------------------------------------------------------------------------------------------------------




--------------------------------------- Iteration     19(   2)  ---------------------------------------


    POTLOK:  cpu time    0.1349: real time    0.1353
    SETDIJ:  cpu time    0.1580: real time    0.1580
     EDDAV:  cpu time    5.8152: real time    5.8209
       DOS:  cpu time    0.0002: real time    0.0002
    CHARGE:  cpu time    0.2235: real time    0.2237
    MIXING:  cpu time    0.0044: real time    0.0045
    --------------------------------------------
      LOOP:  cpu time    6.3363: real time    6.3427

 eigenvalue-minimisations  :   560
 total energy-change (2. order) :-0.3678683E-04  (-0.4053792E-04)
 number of electron     384.0000001 magnetization 
 augmentation part      -49.4174294 magnetization 

 Broyden mixing:
  rms(total) = 0.72650E-03    rms(broyden)= 0.72589E-03
  rms(prec ) = 0.96258E-03
  weight for this iteration     100.00

 eigenvalues of (default mixing * dielectric matrix)
  average eigenvalue GAMMA=   0.8924
  0.8924

 Free energy of the ion-electron system (eV)
  ---------------------------------------------------
  alpha Z        PSCENC =       310.04809462
  Ewald energy   TEWEN  =    -15411.05567203
  -Hartree energ DENC   =     -4575.33106988
  -exchange      EXHF   =         0.00000000
  -V(xc)+E(xc)   XCENC  =       447.05733113
  PAW double counting   =     11244.53495001   -10653.82821532
  entropy T*S    EENTRO =        -0.00000000
  eigenvalues    EBANDS =     -1859.78281838
  atomic energy  EATOM  =     20224.25915541
  Solvation  Ediel_sol  =         0.00000000
  ---------------------------------------------------
  free energy    TOTEN  =      -274.09824446 eV

  energy without entropy =     -274.09824446  energy(sigma->0) =     -274.09824446


--------------------------------------------------------------------------------------------------------




--------------------------------------- Iteration     19(   3)  ---------------------------------------


    POTLOK:  cpu time    0.1304: real time    0.1356
    SETDIJ:  cpu time    0.1580: real time    0.1580
     EDDAV:  cpu time    4.1742: real time    4.1781
       DOS:  cpu time    0.0001: real time    0.0001
    --------------------------------------------
      LOOP:  cpu time    4.4627: real time    4.4718

 eigenvalue-minimisations  :   360
 total energy-change (2. order) : 0.8648531E-06  (-0.6139854E-06)
 number of electron     384.0000001 magnetization 
 augmentation part      -49.4174294 magnetization 

 Free energy of the ion-electron system (eV)
  ---------------------------------------------------
  alpha Z        PSCENC =       310.04809462
  Ewald energy   TEWEN  =    -15411.05567203
  -Hartree energ DENC   =     -4575.32999917
  -exchange      EXHF   =         0.00000000
  -V(xc)+E(xc)   XCENC  =       447.05726228
  PAW double counting   =     11244.53197946   -10653.82520054
  entropy T*S    EENTRO =        -0.00000000
  eigenvalues    EBANDS =     -1859.78386361
  atomic energy  EATOM  =     20224.25915541
  Solvation  Ediel_sol  =         0.00000000
  ---------------------------------------------------
  free energy    TOTEN  =      -274.09824359 eV

  energy without entropy =     -274.09824359  energy(sigma->0) =     -274.09824359


--------------------------------------------------------------------------------------------------------




 average (electrostatic) potential at core
  the test charge radii are     0.9406  1.4837  0.9748
  (the norm of the test charge is              1.0000)
       1 -92.6767       2 -92.6768       3 -94.2192       4 -94.2192       5 -94.0889
       6 -94.7289       7 -94.1137       8 -94.0460       9 -93.5687      10 -93.5687
      11 -93.6647      12 -93.6647      13 -94.1637      14 -94.0204      15 -94.0153
      16 -94.1647      17 -93.9888      18 -93.9888      19 -93.9806      20 -93.9806
      21 -94.7289      22 -94.0889      23 -94.0460      24 -94.1137      25 -93.9988
      26 -93.9988      27 -94.0204      28 -94.0204      29 -94.0204      30 -94.1637
      31 -94.1647      32 -94.0153      33 -93.7016      34 -93.7016      35 -94.0658
      36 -94.1305      37 -92.5367      38 -92.5367      39 -94.0693      40 -94.6560
      41 -93.9786      42 -93.9786      43 -94.1305      44 -94.0658      45 -94.0806
      46 -94.0806      47 -94.6560      48 -94.0693      49 -41.9822      50 -41.5370
      51 -41.8888      52 -41.9099      53 -41.9822      54 -41.8069      55 -41.8888
      56 -42.2102      57 -27.8222      58 -28.1161      59 -28.7422      60 -28.7690
      61 -27.8223      62 -28.1161      63 -28.8963      64 -28.3786      65 -28.6608
      66 -28.6638      67 -28.8963      68 -28.3786      69 -28.6608      70 -28.6637
      71 -28.7422      72 -28.7690      73 -28.5137      74 -28.7528      75 -27.9697
      76 -28.7528      77 -27.9697      78 -28.8436      79 -28.5138      80 -28.8436
 
 
 
 E-fermi :   0.4224     XC(G=0):  -7.8727     alpha+bet : -7.9187


 k-point     1 :       0.0000    0.0000    0.0000
  band No.  band energies     occupation 
      1     -14.6452      2.00000
      2     -14.3831      2.00000
      3     -14.1673      2.00000
      4     -14.1435      2.00000
      5     -14.0831      2.00000
      6     -14.0608      2.00000
      7     -14.0430      2.00000
      8     -13.9208      2.00000
      9     -13.8710      2.00000
     10     -13.8336      2.00000
     11     -13.8071      2.00000
     12     -13.7726      2.00000
     13     -13.7455      2.00000
     14     -13.7316      2.00000
     15     -13.7223      2.00000
     16     -13.6818      2.00000
     17     -13.6780      2.00000
     18     -13.6600      2.00000
     19     -13.6484      2.00000
     20     -13.6012      2.00000
     21     -13.5970      2.00000
     22     -13.5829      2.00000
     23     -13.5803      2.00000
     24     -13.5530      2.00000
     25     -13.5458      2.00000
     26     -13.4998      2.00000
     27     -13.4909      2.00000
     28     -13.4594      2.00000
     29     -13.4532      2.00000
     30     -13.4459      2.00000
     31     -13.4129      2.00000
     32     -13.4091      2.00000
     33     -13.4030      2.00000
     34     -13.3792      2.00000
     35     -13.3595      2.00000
     36     -13.3444      2.00000
     37     -13.3212      2.00000
     38     -13.3026      2.00000
     39     -13.2865      2.00000
     40     -13.2754      2.00000
     41     -13.1726      2.00000
     42     -13.1194      2.00000
     43     -12.9589      2.00000
     44     -12.9305      2.00000
     45     -12.2841      2.00000
     46     -12.2615      2.00000
     47     -12.1428      2.00000
     48     -12.1380      2.00000
     49      -5.5954      2.00000
     50      -5.3097      2.00000
     51      -5.2591      2.00000
     52      -5.1502      2.00000
     53      -5.1224      2.00000
     54      -5.0936      2.00000
     55      -4.9936      2.00000
     56      -4.6690      2.00000
     57      -3.8651      2.00000
     58      -3.6790      2.00000
     59      -3.6772      2.00000
     60      -3.4817      2.00000
     61      -3.4216      2.00000
     62      -3.3920      2.00000
     63      -3.3916      2.00000
     64      -3.3675      2.00000
     65      -3.2698      2.00000
     66      -3.2496      2.00000
     67      -3.2289      2.00000
     68      -3.2286      2.00000
     69      -3.1793      2.00000
     70      -3.0650      2.00000
     71      -3.0418      2.00000
     72      -3.0113      2.00000
     73      -3.0062      2.00000
     74      -2.9721      2.00000
     75      -2.9565      2.00000
     76      -2.8981      2.00000
     77      -2.8231      2.00000
     78      -2.7596      2.00000
     79      -2.7412      2.00000
     80      -2.7347      2.00000
     81      -2.6561      2.00000
     82      -2.6209      2.00000
     83      -2.6149      2.00000
     84      -2.5939      2.00000
     85      -2.5670      2.00000
     86      -2.5534      2.00000
     87      -2.5025      2.00000
     88      -2.4559      2.00000
     89      -2.4123      2.00000
     90      -2.3920      2.00000
     91      -2.3670      2.00000
     92      -2.3518      2.00000
     93      -2.3239      2.00000
     94      -2.3146      2.00000
     95      -2.3068      2.00000
     96      -2.3049      2.00000
     97      -2.2549      2.00000
     98      -2.2217      2.00000
     99      -2.2185      2.00000
    100      -2.1940      2.00000
    101      -2.1643      2.00000
    102      -2.1451      2.00000
    103      -2.1217      2.00000
    104      -2.0648      2.00000
    105      -2.0193      2.00000
    106      -2.0038      2.00000
    107      -1.9702      2.00000
    108      -1.9543      2.00000
    109      -1.9310      2.00000
    110      -1.9114      2.00000
    111      -1.9026      2.00000
    112      -1.8894      2.00000
    113      -1.8567      2.00000
    114      -1.8237      2.00000
    115      -1.8225      2.00000
    116      -1.7925      2.00000
    117      -1.7775      2.00000
    118      -1.7217      2.00000
    119      -1.7024      2.00000
    120      -1.6868      2.00000
    121      -1.6768      2.00000
    122      -1.6759      2.00000
    123      -1.6485      2.00000
    124      -1.6420      2.00000
    125      -1.6116      2.00000
    126      -1.6077      2.00000
    127      -1.5817      2.00000
    128      -1.5587      2.00000
    129      -1.5514      2.00000
    130      -1.5290      2.00000
    131      -1.5201      2.00000
    132      -1.5135      2.00000
    133      -1.4905      2.00000
    134      -1.4643      2.00000
    135      -1.4480      2.00000
    136      -1.4405      2.00000
    137      -1.4319      2.00000
    138      -1.3922      2.00000
    139      -1.3905      2.00000
    140      -1.3803      2.00000
    141      -1.3505      2.00000
    142      -1.3494      2.00000
    143      -1.3328      2.00000
    144      -1.3323      2.00000
    145      -1.3077      2.00000
    146      -1.2991      2.00000
    147      -1.2809      2.00000
    148      -1.2682      2.00000
    149      -1.2542      2.00000
    150      -1.2428      2.00000
    151      -1.2279      2.00000
    152      -1.2105      2.00000
    153      -1.1961      2.00000
    154      -1.1811      2.00000
    155      -1.1792      2.00000
    156      -1.1592      2.00000
    157      -1.1486      2.00000
    158      -1.1199      2.00000
    159      -1.0972      2.00000
    160      -1.0830      2.00000
    161      -1.0822      2.00000
    162      -1.0756      2.00000
    163      -1.0608      2.00000
    164      -1.0556      2.00000
    165      -1.0142      2.00000
    166      -0.9939      2.00000
    167      -0.9810      2.00000
    168      -0.9731      2.00000
    169      -0.9471      2.00000
    170      -0.9321      2.00000
    171      -0.9209      2.00000
    172      -0.9065      2.00000
    173      -0.8802      2.00000
    174      -0.8642      2.00000
    175      -0.8315      2.00000
    176      -0.8028      2.00000
    177      -0.7950      2.00000
    178      -0.7609      2.00000
    179      -0.7541      2.00000
    180      -0.6716      2.00000
    181      -0.6685      2.00000
    182      -0.5967      2.00000
    183      -0.5959      2.00000
    184      -0.5217      2.00000
    185      -0.3581      2.00000
    186      -0.3526      2.00000
    187      -0.3363      2.00000
    188      -0.2711      2.00000
    189      -0.2372      2.00000
    190      -0.2219      2.00000
    191      -0.1578      2.00000
    192      -0.0625      2.00000
    193       2.4847      0.00000
    194       2.8019      0.00000
    195       2.8188      0.00000
    196       2.9411      0.00000
    197       3.1372      0.00000
    198       3.1474      0.00000
    199       3.2244      0.00000
    200       3.4328      0.00000
    201       5.6795      0.00000
    202       5.8146      0.00000
    203       5.9158      0.00000
    204       5.9626      0.00000
    205       6.0661      0.00000
    206       6.0782      0.00000
    207       6.1352      0.00000
    208       6.1843      0.00000
    209       6.2659      0.00000
    210       6.3693      0.00000
    211       6.4908      0.00000
    212       6.5355      0.00000
    213       6.6338      0.00000
    214       6.6424      0.00000
    215       6.6992      0.00000
    216       6.7451      0.00000
    217       6.8250      0.00000
    218       6.8385      0.00000
    219       6.9193      0.00000
    220       6.9724      0.00000
    221       6.9908      0.00000
    222       7.0530      0.00000
    223       7.1794      0.00000
    224       7.2356      0.00000
    225       7.2701      0.00000
    226       7.3659      0.00000
    227       7.4411      0.00000
    228       7.4627      0.00000
    229       7.5421      0.00000
    230       7.5563      0.00000
    231       7.6021      0.00000
    232       7.6949      0.00000
    233       7.7846      0.00000
    234       7.8043      0.00000
    235       7.8231      0.00000
    236       7.8758      0.00000
    237       7.8856      0.00000
    238       7.9045      0.00000
    239       7.9839      0.00000
    240       8.0090      0.00000


--------------------------------------------------------------------------------------------------------


 soft charge-density along one line, spin component           1
         0         1         2         3         4         5         6         7         8         9
 total charge-density along one line
 
 pseudopotential strength for first ion, spin component:           1
 47.402  -0.016  -0.003   0.019   0.003  -0.000   0.000   0.000
 -0.016   0.019  -0.000   0.000   0.000  -0.000   0.000   0.000
 -0.003  -0.000   9.108   0.000  -0.000   0.002  -0.000   0.000
  0.019   0.000   0.000   9.105   0.000  -0.000   0.002  -0.000
  0.003   0.000  -0.000   0.000   9.109   0.000  -0.000   0.002
 -0.000  -0.000   0.002  -0.000   0.000   0.035   0.000   0.000
  0.000   0.000  -0.000   0.002  -0.000   0.000   0.035   0.000
  0.000   0.000   0.000  -0.000   0.002   0.000   0.000   0.035
 total augmentation occupancy for first ion, spin component:           1
  1.911   0.427   0.009  -0.060  -0.010   0.011  -0.066  -0.012
  0.427   0.249  -0.053   0.334   0.058   0.013  -0.099  -0.024
  0.009  -0.053   1.759  -0.002   0.003  -0.398  -0.007   0.002
 -0.060   0.334  -0.002   1.797  -0.001  -0.007  -0.329  -0.010
 -0.010   0.058   0.003  -0.001   1.750   0.002  -0.010  -0.423
  0.011   0.013  -0.398  -0.007   0.002   0.101   0.003  -0.000
 -0.066  -0.099  -0.007  -0.329  -0.010   0.003   0.078   0.006
 -0.012  -0.024   0.002  -0.010  -0.423  -0.000   0.006   0.114


------------------------ aborting loop because EDIFF is reached ----------------------------------------


 


 total charge     
 
# of ion       s       p       d       tot
------------------------------------------
    1        1.589   3.591   0.000   5.180
    2        1.589   3.591   0.000   5.180
    3        1.599   3.535   0.000   5.134
    4        1.599   3.535   0.000   5.134
    5        1.598   3.544   0.000   5.142
    6        1.603   3.527   0.000   5.130
    7        1.598   3.539   0.000   5.137
    8        1.599   3.536   0.000   5.135
    9        1.597   3.539   0.000   5.136
   10        1.597   3.539   0.000   5.136
   11        1.594   3.555   0.000   5.149
   12        1.594   3.555   0.000   5.149
   13        1.597   3.549   0.000   5.145
   14        1.598   3.544   0.000   5.143
   15        1.599   3.543   0.000   5.142
   16        1.596   3.550   0.000   5.146
   17        1.597   3.544   0.000   5.141
   18        1.597   3.544   0.000   5.141
   19        1.595   3.548   0.000   5.144
   20        1.595   3.548   0.000   5.144
   21        1.603   3.527   0.000   5.130
   22        1.598   3.544   0.000   5.142
   23        1.599   3.536   0.000   5.135
   24        1.598   3.539   0.000   5.137
   25        1.596   3.561   0.000   5.156
   26        1.596   3.561   0.000   5.156
   27        1.596   3.546   0.000   5.142
   28        1.596   3.546   0.000   5.142
   29        1.598   3.544   0.000   5.143
   30        1.597   3.549   0.000   5.145
   31        1.596   3.550   0.000   5.146
   32        1.599   3.543   0.000   5.142
   33        1.599   3.539   0.000   5.139
   34        1.599   3.539   0.000   5.139
   35        1.596   3.552   0.000   5.148
   36        1.595   3.562   0.000   5.157
   37        1.590   3.591   0.000   5.181
   38        1.590   3.591   0.000   5.181
   39        1.599   3.537   0.000   5.136
   40        1.604   3.522   0.000   5.126
   41        1.600   3.541   0.000   5.140
   42        1.600   3.541   0.000   5.140
   43        1.595   3.562   0.000   5.157
   44        1.596   3.552   0.000   5.148
   45        1.596   3.557   0.000   5.153
   46        1.596   3.557   0.000   5.153
   47        1.604   3.522   0.000   5.126
   48        1.599   3.537   0.000   5.136
   49        0.975   1.144   0.373   2.492
   50        0.966   1.107   0.360   2.433
   51        0.971   1.149   0.383   2.503
   52        0.962   1.117   0.370   2.449
   53        0.975   1.144   0.373   2.492
   54        0.970   1.135   0.375   2.479
   55        0.971   1.149   0.383   2.503
   56        0.974   1.143   0.371   2.489
   57        0.071   0.129   0.000   0.200
   58        0.071   0.133   0.000   0.204
   59        0.056   0.102   0.000   0.158
   60        0.058   0.105   0.000   0.163
   61        0.071   0.129   0.000   0.200
   62        0.071   0.133   0.000   0.204
   63        0.056   0.101   0.000   0.157
   64        0.064   0.115   0.000   0.179
   65        0.061   0.110   0.000   0.171
   66        0.061   0.112   0.000   0.173
   67        0.056   0.101   0.000   0.157
   68        0.064   0.115   0.000   0.179
   69        0.061   0.110   0.000   0.171
   70        0.061   0.112   0.000   0.173
   71        0.056   0.102   0.000   0.158
   72        0.058   0.105   0.000   0.163
   73        0.062   0.110   0.000   0.172
   74        0.060   0.107   0.000   0.167
   75        0.068   0.126   0.000   0.195
   76        0.060   0.107   0.000   0.167
   77        0.068   0.126   0.000   0.195
   78        0.060   0.107   0.000   0.168
   79        0.062   0.110   0.000   0.172
   80        0.060   0.107   0.000   0.168
--------------------------------------------------
tot         85.917 182.109   2.986 271.012
 
    CHARGE:  cpu time    0.2221: real time    0.2224
    FORLOC:  cpu time    0.0568: real time    0.0568
    FORNL :  cpu time    1.4169: real time    1.4183
    STRESS:  cpu time    7.0198: real time    7.0364
    FORCOR:  cpu time    0.1674: real time    0.1678
    FORHAR:  cpu time    0.0813: real time    0.0813
    MIXING:  cpu time    0.0039: real time    0.0039
    OFIELD:  cpu time    0.0000: real time    0.0000

  FORCE on cell =-STRESS in cart. coord.  units (eV):
  Direction    XX          YY          ZZ          XY          YZ          ZX
  --------------------------------------------------------------------------------------
  Alpha Z   310.04809   310.04809   310.04809
  Ewald   -5105.31823 -5450.99322 -4854.83394    -0.00000    -0.00000    23.29603
  Hartree  1545.19795  1337.11512  1693.01274    -0.00000     0.00000     8.19622
  E(xc)   -1403.68233 -1403.60068 -1405.06313     0.00000     0.00000     0.15712
  Local   -4340.26026 -3801.70719 -4721.02806    -0.00000     0.00000   -32.96705
  n-local  4204.06699  4200.79685  4209.64469    -0.00000     0.00000     0.23118
  augment  -980.06148  -981.10370  -979.49543     0.00000     0.00000    -0.09448
  Kinetic  5770.91214  5792.60149  5748.39874     0.00001     0.00000     1.33143
  Fock        0.00000     0.00000     0.00000     0.00000     0.00000     0.00000
  -------------------------------------------------------------------------------------
  Total       0.90287     3.15678     0.68369     0.00000     0.00000     0.15045
  in kB       0.77726     2.71759     0.58857     0.00000     0.00000     0.12952
  external pressure =        1.36 kB  Pullay stress =        0.00 kB


 VOLUME and BASIS-vectors are now :
 -----------------------------------------------------------------------------
  energy-cutoff  :      520.00
  volume of cell :     1861.11
      direct lattice vectors                 reciprocal lattice vectors
    13.459017910  0.000000000 -0.273085008     0.074898101  0.000000000  0.029495859
     0.000000000 11.456071877  0.000000000     0.000000000  0.087289955  0.000000000
    -4.791777054  0.000000000 12.167640179     0.001680979  0.000000000  0.082847197

  length of vectors
    13.461788088 11.456071877 13.077178399     0.080496777  0.087289955  0.082864248


 FORCES acting on ions
    electron-ion (+dipol)            ewald-force                    non-local-force                 convergence-correction
 -----------------------------------------------------------------------------------------------
   0.141E+02 0.698E+01 0.548E+02   -.143E+02 -.678E+01 -.563E+02   0.169E+00 -.211E+00 0.144E+01   0.501E-02 0.346E-02 0.145E-02
   -.141E+02 0.698E+01 -.548E+02   0.143E+02 -.678E+01 0.563E+02   -.169E+00 -.211E+00 -.144E+01   -.501E-02 0.346E-02 -.145E-02
   0.217E+02 -.724E+02 0.128E+01   -.228E+02 0.745E+02 -.290E+01   0.108E+01 -.214E+01 0.162E+01   0.387E-02 -.313E-02 0.563E-02
   -.217E+02 -.724E+02 -.128E+01   0.228E+02 0.745E+02 0.290E+01   -.108E+01 -.214E+01 -.162E+01   -.387E-02 -.313E-02 -.563E-02
   -.405E+02 -.417E+02 0.364E+01   0.413E+02 0.435E+02 -.282E+01   -.816E+00 -.184E+01 -.820E+00   -.204E-02 -.422E-02 -.567E-02
   -.325E+02 -.386E+02 0.273E+02   0.335E+02 0.395E+02 -.287E+02   -.997E+00 -.926E+00 0.147E+01   0.208E-02 -.121E-02 -.538E-03
   0.225E+02 0.765E+02 -.448E+01   -.236E+02 -.786E+02 0.365E+01   0.113E+01 0.212E+01 0.830E+00   -.136E-02 -.604E-02 -.526E-03
   -.251E+02 0.516E+02 0.162E+02   0.259E+02 -.539E+02 -.150E+02   -.849E+00 0.231E+01 -.123E+01   -.195E-02 -.273E-02 0.666E-03
   -.184E+02 -.454E+02 -.269E+01   0.192E+02 0.472E+02 0.356E+01   -.729E+00 -.178E+01 -.877E+00   0.247E-02 0.623E-02 0.123E-02
   0.184E+02 -.454E+02 0.269E+01   -.192E+02 0.472E+02 -.356E+01   0.729E+00 -.178E+01 0.877E+00   -.247E-02 0.623E-02 -.123E-02
   0.216E+02 0.263E+02 -.680E+01   -.221E+02 -.274E+02 0.657E+01   0.486E+00 0.107E+01 0.221E+00   0.134E-02 0.261E-02 0.132E-02
   -.216E+02 0.263E+02 0.680E+01   0.221E+02 -.274E+02 -.657E+01   -.486E+00 0.107E+01 -.221E+00   -.134E-02 0.261E-02 -.132E-02
   -.266E+02 -.402E+02 0.399E+01   0.278E+02 0.418E+02 -.353E+01   -.119E+01 -.159E+01 -.457E+00   0.120E-03 0.143E-02 -.151E-02
   0.195E+02 -.426E+02 -.146E+02   -.205E+02 0.445E+02 0.139E+02   0.989E+00 -.197E+01 0.783E+00   0.569E-03 0.444E-02 -.138E-02
   0.241E+02 0.590E+02 0.110E+01   -.252E+02 -.613E+02 -.170E+01   0.107E+01 0.229E+01 0.605E+00   0.987E-03 -.306E-02 -.340E-02
   -.153E+02 0.472E+02 -.249E+01   0.160E+02 -.487E+02 0.333E+01   -.774E+00 0.150E+01 -.836E+00   -.246E-03 -.111E-02 -.379E-02
   -.250E+02 -.492E+02 0.722E+01   0.259E+02 0.507E+02 -.634E+01   -.991E+00 -.155E+01 -.880E+00   -.948E-03 0.118E-02 0.135E-02
   0.250E+02 -.492E+02 -.721E+01   -.259E+02 0.507E+02 0.634E+01   0.991E+00 -.155E+01 0.880E+00   0.948E-03 0.118E-02 -.135E-02
   0.186E+02 0.361E+02 -.701E+01   -.194E+02 -.376E+02 0.639E+01   0.785E+00 0.145E+01 0.619E+00   -.540E-03 -.436E-02 -.234E-02
   -.186E+02 0.361E+02 0.701E+01   0.194E+02 -.376E+02 -.639E+01   -.785E+00 0.145E+01 -.619E+00   0.540E-03 -.436E-02 0.234E-02
   0.325E+02 -.386E+02 -.273E+02   -.335E+02 0.395E+02 0.287E+02   0.997E+00 -.926E+00 -.147E+01   -.208E-02 -.121E-02 0.538E-03
   0.405E+02 -.417E+02 -.364E+01   -.413E+02 0.435E+02 0.282E+01   0.816E+00 -.184E+01 0.820E+00   0.204E-02 -.422E-02 0.567E-02
   0.251E+02 0.516E+02 -.162E+02   -.259E+02 -.539E+02 0.150E+02   0.849E+00 0.231E+01 0.123E+01   0.195E-02 -.273E-02 -.666E-03
   -.225E+02 0.765E+02 0.448E+01   0.236E+02 -.786E+02 -.365E+01   -.113E+01 0.212E+01 -.830E+00   0.136E-02 -.604E-02 0.526E-03
   -.253E+02 -.371E+02 0.526E+01   0.256E+02 0.385E+02 -.475E+01   -.286E+00 -.146E+01 -.515E+00   0.391E-02 0.453E-02 0.494E-02
   0.253E+02 -.371E+02 -.526E+01   -.256E+02 0.385E+02 0.475E+01   0.286E+00 -.146E+01 0.515E+00   -.391E-02 0.453E-02 -.494E-02
   0.246E+02 0.293E+02 -.733E+01   -.254E+02 -.305E+02 0.639E+01   0.852E+00 0.118E+01 0.944E+00   -.100E-02 -.554E-02 -.118E-02
   -.246E+02 0.293E+02 0.733E+01   0.254E+02 -.305E+02 -.639E+01   -.852E+00 0.118E+01 -.944E+00   0.100E-02 -.554E-02 0.118E-02
   -.195E+02 -.426E+02 0.146E+02   0.205E+02 0.445E+02 -.139E+02   -.989E+00 -.197E+01 -.783E+00   -.569E-03 0.444E-02 0.138E-02
   0.266E+02 -.402E+02 -.399E+01   -.278E+02 0.418E+02 0.353E+01   0.119E+01 -.159E+01 0.457E+00   -.120E-03 0.143E-02 0.151E-02
   0.153E+02 0.472E+02 0.249E+01   -.160E+02 -.487E+02 -.333E+01   0.774E+00 0.150E+01 0.836E+00   0.246E-03 -.111E-02 0.379E-02
   -.241E+02 0.590E+02 -.110E+01   0.252E+02 -.613E+02 0.170E+01   -.107E+01 0.229E+01 -.605E+00   -.987E-03 -.306E-02 0.340E-02
   -.532E+02 -.124E+02 0.756E+00   0.558E+02 0.124E+02 -.121E+01   -.262E+01 -.247E-01 0.461E+00   -.318E-02 0.453E-02 -.311E-02
   0.532E+02 -.124E+02 -.756E+00   -.558E+02 0.124E+02 0.121E+01   0.262E+01 -.247E-01 -.461E+00   0.318E-02 0.453E-02 0.311E-02
   -.442E+02 0.755E+01 -.180E+02   0.457E+02 -.779E+01 0.173E+02   -.152E+01 0.235E+00 0.724E+00   -.308E-02 0.119E-02 0.339E-02
   0.384E+02 0.756E+01 0.131E+02   -.399E+02 -.726E+01 -.128E+02   0.144E+01 -.296E+00 -.330E+00   -.273E-03 0.961E-03 -.202E-02
   0.874E+01 -.308E+02 -.572E+02   -.876E+01 0.308E+02 0.587E+02   0.250E-01 -.253E-01 -.157E+01   -.133E-02 -.956E-03 -.575E-02
   -.874E+01 -.308E+02 0.572E+02   0.876E+01 0.308E+02 -.587E+02   -.250E-01 -.253E-01 0.157E+01   0.133E-02 -.956E-03 0.575E-02
   -.561E+02 0.535E+01 -.173E+02   0.588E+02 -.498E+01 0.165E+02   -.265E+01 -.367E+00 0.748E+00   -.244E-02 -.692E-03 0.180E-03
   0.159E+02 0.637E+02 -.212E+02   -.167E+02 -.653E+02 0.226E+02   0.774E+00 0.159E+01 -.138E+01   0.134E-02 -.161E-03 -.723E-03
   -.545E+02 -.490E+01 -.141E+02   0.573E+02 0.474E+01 0.138E+02   -.273E+01 0.152E+00 0.294E+00   -.573E-02 -.262E-03 -.583E-04
   0.545E+02 -.490E+01 0.141E+02   -.573E+02 0.474E+01 -.138E+02   0.273E+01 0.152E+00 -.294E+00   0.573E-02 -.262E-03 0.583E-04
   -.384E+02 0.756E+01 -.131E+02   0.399E+02 -.726E+01 0.128E+02   -.144E+01 -.296E+00 0.330E+00   0.273E-03 0.961E-03 0.202E-02
   0.442E+02 0.755E+01 0.180E+02   -.457E+02 -.779E+01 -.173E+02   0.152E+01 0.235E+00 -.724E+00   0.308E-02 0.119E-02 -.339E-02
   -.540E+02 -.848E+01 -.243E+02   0.557E+02 0.846E+01 0.239E+02   -.178E+01 0.246E-01 0.410E+00   -.285E-02 -.274E-02 0.179E-02
   0.540E+02 -.848E+01 0.243E+02   -.557E+02 0.846E+01 -.239E+02   0.178E+01 0.246E-01 -.410E+00   0.285E-02 -.274E-02 -.179E-02
   -.159E+02 0.637E+02 0.212E+02   0.167E+02 -.653E+02 -.226E+02   -.774E+00 0.159E+01 0.138E+01   -.134E-02 -.161E-03 0.723E-03
   0.561E+02 0.535E+01 0.173E+02   -.588E+02 -.498E+01 -.165E+02   0.265E+01 -.367E+00 -.748E+00   0.244E-02 -.692E-03 -.180E-03
   -.772E+01 0.962E+01 0.129E+01   0.932E+01 -.106E+02 -.120E+01   -.160E+01 0.962E+00 -.913E-01   -.677E-03 -.242E-03 0.551E-03
   -.491E-06 -.222E+01 -.934E-06   -.358E-05 0.340E+01 -.688E-05   0.000E+00 -.118E+01 0.000E+00   -.176E-08 -.374E-03 0.153E-08
   -.293E+01 0.333E+01 -.366E+01   0.259E+01 -.348E+01 0.272E+01   0.342E+00 0.156E+00 0.942E+00   0.270E-03 0.285E-03 -.294E-03
   0.639E-06 -.273E+01 0.981E-06   0.468E-05 0.312E+01 0.720E-05   -.847E-21 -.394E+00 0.000E+00   0.450E-09 0.172E-03 -.587E-09
   0.772E+01 0.962E+01 -.129E+01   -.932E+01 -.106E+02 0.120E+01   0.160E+01 0.962E+00 0.913E-01   0.677E-03 -.242E-03 -.551E-03
   -.493E-06 0.279E+01 -.895E-06   -.361E-05 -.260E+01 -.657E-05   0.000E+00 -.194E+00 0.000E+00   -.157E-08 -.126E-03 0.174E-08
   0.293E+01 0.333E+01 0.366E+01   -.259E+01 -.348E+01 -.272E+01   -.342E+00 0.156E+00 -.942E+00   -.270E-03 0.285E-03 0.294E-03
   0.225E-07 -.125E+02 0.146E-05   0.131E-06 0.138E+02 0.109E-04   0.000E+00 -.134E+01 0.000E+00   0.922E-13 -.346E-03 0.144E-08
   0.463E+00 -.880E+01 0.275E+01   -.866E-01 0.790E+01 -.342E+01   -.377E+00 0.893E+00 0.675E+00   -.549E-04 0.197E-03 0.891E-04
   0.318E+01 0.464E+01 -.379E+00   -.270E+01 -.346E+01 0.585E+00   -.474E+00 -.118E+01 -.204E+00   0.690E-04 -.656E-04 -.735E-04
   -.311E+01 -.405E+01 -.471E+01   0.297E+01 0.396E+01 0.463E+01   0.135E+00 0.953E-01 0.797E-01   -.153E-03 -.178E-03 0.757E-04
   -.823E+00 0.105E+02 -.120E+01   0.775E+00 -.983E+01 0.121E+01   0.496E-01 -.695E+00 -.110E-01   -.218E-03 -.141E-03 -.435E-04
   -.463E+00 -.880E+01 -.275E+01   0.866E-01 0.790E+01 0.342E+01   0.377E+00 0.893E+00 -.675E+00   0.549E-04 0.197E-03 -.891E-04
   -.318E+01 0.464E+01 0.379E+00   0.270E+01 -.346E+01 -.585E+00   0.474E+00 -.118E+01 0.204E+00   -.690E-04 -.656E-04 0.735E-04
   0.170E+01 -.538E+01 -.350E+01   -.137E+01 0.502E+01 0.306E+01   -.329E+00 0.352E+00 0.442E+00   -.639E-04 0.126E-04 -.562E-04
   -.584E+00 -.489E-01 0.971E-02   0.552E-01 -.757E+00 -.312E+00   0.528E+00 0.804E+00 0.302E+00   -.273E-04 0.774E-05 -.123E-03
   -.132E+01 -.807E+01 0.842E+00   0.138E+01 0.741E+01 -.759E+00   -.589E-01 0.660E+00 -.818E-01   -.808E-04 0.198E-03 -.719E-04
   0.377E+00 0.815E+01 -.672E+00   -.403E+00 -.737E+01 0.659E+00   0.258E-01 -.783E+00 0.128E-01   -.504E-04 -.119E-03 -.558E-05
   -.170E+01 -.538E+01 0.350E+01   0.137E+01 0.502E+01 -.306E+01   0.329E+00 0.352E+00 -.442E+00   0.639E-04 0.126E-04 0.562E-04
   0.584E+00 -.489E-01 -.971E-02   -.552E-01 -.757E+00 0.312E+00   -.528E+00 0.804E+00 -.302E+00   0.273E-04 0.774E-05 0.123E-03
   0.132E+01 -.807E+01 -.842E+00   -.138E+01 0.741E+01 0.759E+00   0.589E-01 0.660E+00 0.818E-01   0.808E-04 0.198E-03 0.719E-04
   -.377E+00 0.815E+01 0.672E+00   0.403E+00 -.737E+01 -.659E+00   -.258E-01 -.783E+00 -.128E-01   0.504E-04 -.119E-03 0.558E-05
   0.311E+01 -.405E+01 0.471E+01   -.297E+01 0.396E+01 -.463E+01   -.135E+00 0.953E-01 -.797E-01   0.153E-03 -.178E-03 -.757E-04
   0.823E+00 0.105E+02 0.120E+01   -.775E+00 -.983E+01 -.121E+01   -.496E-01 -.695E+00 0.110E-01   0.218E-03 -.141E-03 0.435E-04
   0.465E+01 0.440E+01 0.442E+01   -.497E+01 -.332E+01 -.456E+01   0.316E+00 -.108E+01 0.138E+00   -.675E-04 0.283E-03 0.213E-04
   -.274E+01 0.627E+00 -.457E+00   0.266E+01 -.677E+00 0.346E+00   0.860E-01 0.500E-01 0.112E+00   -.985E-04 -.822E-04 0.192E-04
   -.546E+01 -.176E+01 -.416E+00   0.444E+01 0.182E+01 0.778E+00   0.101E+01 -.531E-01 -.360E+00   -.160E-03 0.377E-04 -.756E-04
   0.274E+01 0.627E+00 0.457E+00   -.266E+01 -.677E+00 -.346E+00   -.860E-01 0.500E-01 -.112E+00   0.985E-04 -.822E-04 -.192E-04
   0.546E+01 -.176E+01 0.416E+00   -.444E+01 0.182E+01 -.778E+00   -.101E+01 -.531E-01 0.360E+00   0.160E-03 0.377E-04 0.756E-04
   0.918E+00 0.198E+01 0.375E+00   -.788E+00 -.229E+01 -.350E-01   -.131E+00 0.316E+00 -.338E+00   0.674E-04 -.513E-04 -.694E-04
   -.465E+01 0.440E+01 -.442E+01   0.497E+01 -.332E+01 0.456E+01   -.316E+00 -.108E+01 -.138E+00   0.675E-04 0.283E-03 -.213E-04
   -.918E+00 0.198E+01 -.375E+00   0.788E+00 -.229E+01 0.350E-01   0.131E+00 0.316E+00 0.338E+00   -.674E-04 -.513E-04 0.694E-04
 -----------------------------------------------------------------------------------------------
   0.274E-03 0.263E+01 -.697E-03   0.104E-12 -.329E-13 0.232E-12   0.169E-14 -.262E+01 -.167E-15   -.264E-08 -.117E-01 0.299E-08
 
 
 POSITION                                       TOTAL-FORCE (eV/Angst)
 -----------------------------------------------------------------------------------
      1.00949      1.91611      1.91019         0.000712      0.000772      0.003844
      7.65775      1.91611      9.98437        -0.000712      0.000772     -0.003844
      7.77049      9.34147     10.18581         0.001339     -0.003191      0.002634
      0.89675      9.34147      1.70875        -0.001339     -0.003191     -0.002634
      4.19547      7.46086      1.64773        -0.001623     -0.001898     -0.001591
     -2.65556      7.54872     10.69885        -0.000499      0.000680      0.001820
     -2.33487      4.07586     10.45039         0.000272     -0.000047      0.000363
      4.22684      3.97424      1.60146         0.000369      0.000524     -0.000285
     -1.49377      1.71955      7.74473        -0.001068     -0.000729      0.000576
     10.16101      1.71955      4.14983         0.001068     -0.000729     -0.000576
     10.07848      9.61285      4.15681         0.000190     -0.001822     -0.001749
     -1.41124      9.61285      7.73775        -0.000190     -0.001822      0.001749
      2.05188      7.46593      7.58729         0.000914      0.001267      0.000202
     -0.04145      7.39923      4.47256        -0.000881      0.001775     -0.001435
     -0.08953      3.92568      4.63942        -0.000506     -0.003942      0.000092
      1.88052      4.01725      7.77138         0.000506     -0.000781      0.001215
      7.68230      1.76028      1.49592         0.001937      0.003354      0.001481
      0.98494      1.76028     10.39863        -0.001937      0.003354     -0.001481
      1.04752      9.71756     10.39292        -0.000719     -0.001710     -0.000975
      7.61972      9.71756      1.50164         0.000719     -0.001710      0.000975
     11.32280      7.54872      1.19571         0.000499      0.000680     -0.001820
      4.47177      7.46086     10.24682         0.001623     -0.001898      0.001591
      4.44040      3.97424     10.29309        -0.000369      0.000524      0.000285
     11.00211      4.07586      1.44417        -0.000272     -0.000047     -0.000363
      5.07961      1.81200      7.57618         0.001450      0.003752      0.002206
      3.58763      1.81200      4.31837        -0.001450      0.003752     -0.002206
      3.37698      9.76074      4.19829        -0.001463     -0.002585     -0.001666
      5.29026      9.76074      7.69627         0.001463     -0.002585      0.001666
      8.70869      7.39923      7.42200         0.000881      0.001775      0.001435
      6.61536      7.46593      4.30727        -0.000914      0.001267     -0.000202
      6.78672      4.01725      4.12318        -0.000506     -0.000781     -0.001215
      8.75677      3.92568      7.25514         0.000506     -0.003942     -0.000092
     -0.33304     11.31916      4.65101        -0.000208     -0.002644     -0.000180
      9.00028     11.31916      7.24354         0.000208     -0.002644      0.000180
      2.98623      5.62320      4.51254        -0.001125     -0.000249      0.000793
     -1.12459      5.88831      7.61758         0.000490      0.000315      0.000771
     -2.53959     11.32817     10.68988        -0.001894     -0.001637     -0.003757
     11.20683     11.32817      1.20468         0.001894     -0.001637      0.003757
      0.60211      5.98292     10.66506        -0.003567      0.001087      0.004213
      1.11836      5.82281      1.32636         0.000658      0.000600     -0.000137
      6.45406     11.37235      4.59092        -0.001899     -0.000008     -0.000099
      2.21318     11.37235      7.30364         0.001899     -0.000008      0.000099
      9.79183      5.88831      4.27698        -0.000490      0.000315     -0.000771
      5.68101      5.62320      7.38202         0.001125     -0.000249     -0.000793
      4.01415      0.04181     10.53321        -0.000787      0.001202     -0.000473
      4.65309      0.04181      1.36134         0.000787      0.001202      0.000473
      7.54888      5.82281     10.56819        -0.000658      0.000600      0.000137
      8.06513      5.98292      1.22950         0.003567      0.001087     -0.004213
      3.41146      5.68868     -0.00845         0.003506      0.002901      0.000844
     -2.39589      0.00259      6.08382         0.000000     -0.003704      0.000000
      0.95291      5.70892      6.07282         0.000730      0.001101      0.002908
      6.72951      0.04284     -0.13654        -0.000000      0.000249      0.000000
      5.25578      5.68868     11.90300        -0.003506      0.002901     -0.000844
      4.33362     11.40142      5.94728         0.000000      0.001707      0.000000
      7.71433      5.70892      5.82173        -0.000730      0.001101     -0.002908
      0.00000      7.78635     -0.00000         0.000000      0.004455      0.000000
     12.36239      1.39655      2.48505        -0.001021     -0.003556      0.002922
     -3.43375      9.86858      9.15717         0.000133      0.000168      0.002219
      2.10965      7.61662      3.14895        -0.000837     -0.000069     -0.000213
     -0.19932      4.13694      9.16082         0.001924      0.003731      0.003168
     -3.69514      1.39655      9.40950         0.001021     -0.003556     -0.002922
     12.10099      9.86858      2.73739        -0.000133      0.000168     -0.002219
     -0.00916      7.76504      8.86634        -0.000029      0.001284     -0.000055
      1.99477      3.48312      3.28286        -0.001433     -0.001920     -0.000017
      5.72613      1.65167      3.02372         0.001609      0.000234      0.001017
      3.11763      9.80733      8.97961         0.000279      0.001730      0.000427
      8.67640      7.76504      3.02822         0.000029      0.001284      0.000055
      6.67247      3.48312      8.61170         0.001433     -0.001920      0.000017
      2.94111      1.65167      8.87084        -0.001609      0.000234     -0.001017
      5.54961      9.80733      2.91494        -0.000279      0.001730     -0.000427
      6.55759      7.61662      8.74561         0.000837     -0.000069      0.000213
      8.86656      4.13694      2.73374        -0.001924      0.003731     -0.003168
      2.45241      0.29934      2.63302        -0.000560      0.001201      0.000433
      5.20488      5.70072      3.12561        -0.001039      0.000344      0.000447
     -0.67076      0.01227      9.35561        -0.000945     -0.000963      0.001573
      3.46236      5.70072      8.76894         0.001039      0.000344     -0.000447
      9.33800      0.01227      2.53895         0.000945     -0.000963     -0.001573
     12.04668      5.57282      3.16776        -0.000467     -0.001623      0.001203
      6.21483      0.29934      9.26154         0.000560      0.001201     -0.000433
     -3.37944      5.57282      8.72679         0.000467     -0.001623     -0.001203
 -----------------------------------------------------------------------------------
    total drift:                                0.000274     -0.000998     -0.000697


--------------------------------------------------------------------------------------------------------



  FREE ENERGIE OF THE ION-ELECTRON SYSTEM (eV)
  ---------------------------------------------------
  free  energy   TOTEN  =      -274.09824359 eV

  energy  without entropy=     -274.09824359  energy(sigma->0) =     -274.09824359
 
 d Force = 0.1573355E-04[ 0.113E-05, 0.303E-04]  d Energy = 0.1955997E-04-0.383E-05
 d Force =-0.3024681E-01[-0.304E-01,-0.300E-01]  d Ewald  =-0.3024698E-01 0.166E-06


--------------------------------------------------------------------------------------------------------


    POTLOK:  cpu time    0.2915: real time    0.2916


--------------------------------------------------------------------------------------------------------




--------------------------------------------------------------------------------------------------------


  
 reached required accuracy - stopping structural energy minimisation
     LOOP+:  cpu time   25.9010: real time   25.9521
    4ORBIT:  cpu time    0.0000: real time    0.0000
 


 total charge     
 
# of ion       s       p       d       tot
------------------------------------------
    1        1.589   3.591   0.000   5.180
    2        1.589   3.591   0.000   5.180
    3        1.599   3.535   0.000   5.134
    4        1.599   3.535   0.000   5.134
    5        1.598   3.544   0.000   5.142
    6        1.603   3.527   0.000   5.130
    7        1.598   3.539   0.000   5.137
    8        1.599   3.536   0.000   5.135
    9        1.597   3.539   0.000   5.136
   10        1.597   3.539   0.000   5.136
   11        1.594   3.555   0.000   5.149
   12        1.594   3.555   0.000   5.149
   13        1.597   3.549   0.000   5.145
   14        1.598   3.544   0.000   5.143
   15        1.599   3.543   0.000   5.142
   16        1.596   3.550   0.000   5.146
   17        1.597   3.544   0.000   5.141
   18        1.597   3.544   0.000   5.141
   19        1.595   3.548   0.000   5.144
   20        1.595   3.548   0.000   5.144
   21        1.603   3.527   0.000   5.130
   22        1.598   3.544   0.000   5.142
   23        1.599   3.536   0.000   5.135
   24        1.598   3.539   0.000   5.137
   25        1.596   3.561   0.000   5.156
   26        1.596   3.561   0.000   5.156
   27        1.596   3.546   0.000   5.142
   28        1.596   3.546   0.000   5.142
   29        1.598   3.544   0.000   5.143
   30        1.597   3.549   0.000   5.145
   31        1.596   3.550   0.000   5.146
   32        1.599   3.543   0.000   5.142
   33        1.599   3.539   0.000   5.139
   34        1.599   3.539   0.000   5.139
   35        1.596   3.552   0.000   5.148
   36        1.595   3.562   0.000   5.157
   37        1.590   3.591   0.000   5.181
   38        1.590   3.591   0.000   5.181
   39        1.599   3.537   0.000   5.136
   40        1.604   3.522   0.000   5.126
   41        1.600   3.541   0.000   5.140
   42        1.600   3.541   0.000   5.140
   43        1.595   3.562   0.000   5.157
   44        1.596   3.552   0.000   5.148
   45        1.596   3.557   0.000   5.153
   46        1.596   3.557   0.000   5.153
   47        1.604   3.522   0.000   5.126
   48        1.599   3.537   0.000   5.136
   49        0.975   1.144   0.373   2.492
   50        0.966   1.107   0.360   2.433
   51        0.971   1.149   0.383   2.503
   52        0.962   1.117   0.370   2.449
   53        0.975   1.144   0.373   2.492
   54        0.970   1.135   0.375   2.479
   55        0.971   1.149   0.383   2.503
   56        0.974   1.143   0.371   2.489
   57        0.071   0.129   0.000   0.200
   58        0.071   0.133   0.000   0.204
   59        0.056   0.102   0.000   0.158
   60        0.058   0.105   0.000   0.163
   61        0.071   0.129   0.000   0.200
   62        0.071   0.133   0.000   0.204
   63        0.056   0.101   0.000   0.157
   64        0.064   0.115   0.000   0.179
   65        0.061   0.110   0.000   0.171
   66        0.061   0.112   0.000   0.173
   67        0.056   0.101   0.000   0.157
   68        0.064   0.115   0.000   0.179
   69        0.061   0.110   0.000   0.171
   70        0.061   0.112   0.000   0.173
   71        0.056   0.102   0.000   0.158
   72        0.058   0.105   0.000   0.163
   73        0.062   0.110   0.000   0.172
   74        0.060   0.107   0.000   0.167
   75        0.068   0.126   0.000   0.195
   76        0.060   0.107   0.000   0.167
   77        0.068   0.126   0.000   0.195
   78        0.060   0.107   0.000   0.168
   79        0.062   0.110   0.000   0.172
   80        0.060   0.107   0.000   0.168
--------------------------------------------------
tot         85.917 182.109   2.986 271.012
 

 total amount of memory used by VASP MPI-rank0   171742. kBytes
=======================================================================

   base      :      30000. kBytes
   nonl-proj :      79791. kBytes
   fftplans  :       9622. kBytes
   grid      :      46809. kBytes
   one-center:        648. kBytes
   wavefun   :       4872. kBytes
 
  
  
 General timing and accounting informations for this job:
 ========================================================
  
                  Total CPU time used (sec):      697.932
                            User time (sec):      691.303
                          System time (sec):        6.629
                         Elapsed time (sec):      701.870
  
                   Maximum memory used (kb):      265696.
                   Average memory used (kb):           0.
  
                          Minor page faults:        27480
                          Major page faults:            0
                 Voluntary context switches:         2223
