Cl19Y6Cl35O1                            
   1.00000000000000     
    11.2626820704383253   -0.0701521008181251    0.1093250731823154
    -5.6919777503644102    9.7871062533826567   -0.1371355410918327
     0.1174148033599985   -0.1019153157009301   12.3668668423363375
   Cl   O    Cl   Li   Y 
    12     1    23    18     6
Direct
  0.1245137389855333  0.8799074555088580  0.3806570505829494
  0.1221680396405038  0.2320226819062158  0.3840526067090032
  0.7682925284404973  0.8763066292394142  0.3781304765436380
  0.8822096918362438  0.1129271702909482  0.6025299095283657
  0.2236677630875981  0.1132763965099948  0.6130113782269501
  0.8796188691872929  0.7690407491537842  0.6055412155502380
  0.1096557778500728  0.8920213504638766  0.8872538552980223
  0.1239261257014122  0.2255670045254602  0.8817230146323087
  0.7850137316208694  0.9083077345252536  0.8716090265658618
  0.8869096285028271  0.1143336344453623  0.1376735280026290
  0.2261299772140257  0.1232953139254814  0.1206850343550738
  0.9015470951769174  0.7804334112333015  0.1250380798835874
  0.2062574524831003  0.7615402873821386  0.1205185357029498
  0.2304657114019272  0.4397579193815927  0.1320306459523726
  0.5619474964145826  0.7824275580053611  0.1399966673393711
  0.7845341350960556  0.2360957471293360  0.8629094464756186
  0.4336221996156295  0.2271659096235931  0.8591754390981196
  0.7692780471693397  0.5640453278762554  0.8611713414929389
  0.2211168711945063  0.7882175222661426  0.6313281620055956
  0.2048545018225944  0.4231929225103114  0.6417547830029989
  0.5605663552590662  0.7667355749576231  0.6340994859964674
  0.7816225221398686  0.2227597616617622  0.3629239324473291
  0.4396393743861308  0.2269447278654988  0.3721282780405675
  0.7738023168065776  0.5594883927030826  0.3688944521597890
  0.4550488364651790  0.5434862589311232  0.3813026979183461
  0.4730440179435874  0.9129494856203311  0.3895353379292370
  0.0936535404257768  0.5397320847418858  0.3798626742064425
  0.5421872961328483  0.4433037047720173  0.6301612310525975
  0.8914915749649929  0.4411649535202850  0.6163988694200633
  0.5358080302718564  0.1036460272901355  0.6313488881998626
  0.4330020730769155  0.5613387935651540  0.8752477731262450
  0.4292910755769613  0.8739596273037387  0.8826259678585238
  0.1228796395099162  0.5642688183342668  0.8900544576520915
  0.5486115852816233  0.4408668625703815  0.1313676028837832
  0.9004476825824108  0.4563243155211837  0.1352604112964568
  0.5413412026511203  0.0975801528216806  0.1384387899027810
  0.0552155773030597  0.7190819262362260  0.0218749939185619
  0.3398038397952784  0.3253703129373935  0.0027160231586854
  0.3559004054644094  0.0104080212918198  0.4815209723365862
  0.9865558780785523  0.3347541684338660  0.4922001661827400
  0.6547440472688619  0.6474491101605742  0.4986980929355952
  0.6342900978941689  0.9794961259852567  0.5326104800544424
  0.9958818033940984  0.6475454716374127  0.5052504985583816
  0.3544237312798057  0.3454859872336953  0.4951011903040651
  0.2911505032996296  0.9500086325810173  0.1564139407412999
  0.0044598212180346  0.3382708066433665  0.2249176329875823
  0.6563312289576133  0.6659844485421031  0.2382288509284223
  0.3242480207545463  0.3252230429382782  0.7514493363830241
  0.3034770992933783 -0.0022173646872969  0.7608870745597782
  0.9780930727258361  0.2653013673381889  0.7670690523327459
  0.6942709086144444  0.6994545225002949  0.7750608737733818
  0.6528366491271747  0.9944333264153624  0.2414000184358522
  0.0838095528961213  0.6749396135710719  0.2379047713188604
  0.3365029976638145  0.3467081529388334  0.2539323634728308
  0.9849758507516035 -0.0013791140671895  0.0071589989579921
  0.9976337974764006  0.9921062453573799  0.4876567794945407
  0.6744726776373045  0.3403849262920778  0.7471381139505359
  0.3251162905017733  0.6682553347541297  0.7393705403698584
  0.6668205242003092  0.3331353670437012  0.2456124929160774
  0.3212400522989612  0.6880963812725639  0.0477334923739119
 
  0.00000000E+00  0.00000000E+00  0.00000000E+00
  0.00000000E+00  0.00000000E+00  0.00000000E+00
  0.00000000E+00  0.00000000E+00  0.00000000E+00
  0.00000000E+00  0.00000000E+00  0.00000000E+00
  0.00000000E+00  0.00000000E+00  0.00000000E+00
  0.00000000E+00  0.00000000E+00  0.00000000E+00
  0.00000000E+00  0.00000000E+00  0.00000000E+00
  0.00000000E+00  0.00000000E+00  0.00000000E+00
  0.00000000E+00  0.00000000E+00  0.00000000E+00
  0.00000000E+00  0.00000000E+00  0.00000000E+00
  0.00000000E+00  0.00000000E+00  0.00000000E+00
  0.00000000E+00  0.00000000E+00  0.00000000E+00
  0.00000000E+00  0.00000000E+00  0.00000000E+00
  0.00000000E+00  0.00000000E+00  0.00000000E+00
  0.00000000E+00  0.00000000E+00  0.00000000E+00
  0.00000000E+00  0.00000000E+00  0.00000000E+00
  0.00000000E+00  0.00000000E+00  0.00000000E+00
  0.00000000E+00  0.00000000E+00  0.00000000E+00
  0.00000000E+00  0.00000000E+00  0.00000000E+00
  0.00000000E+00  0.00000000E+00  0.00000000E+00
  0.00000000E+00  0.00000000E+00  0.00000000E+00
  0.00000000E+00  0.00000000E+00  0.00000000E+00
  0.00000000E+00  0.00000000E+00  0.00000000E+00
  0.00000000E+00  0.00000000E+00  0.00000000E+00
  0.00000000E+00  0.00000000E+00  0.00000000E+00
  0.00000000E+00  0.00000000E+00  0.00000000E+00
  0.00000000E+00  0.00000000E+00  0.00000000E+00
  0.00000000E+00  0.00000000E+00  0.00000000E+00
  0.00000000E+00  0.00000000E+00  0.00000000E+00
  0.00000000E+00  0.00000000E+00  0.00000000E+00
  0.00000000E+00  0.00000000E+00  0.00000000E+00
  0.00000000E+00  0.00000000E+00  0.00000000E+00
  0.00000000E+00  0.00000000E+00  0.00000000E+00
  0.00000000E+00  0.00000000E+00  0.00000000E+00
  0.00000000E+00  0.00000000E+00  0.00000000E+00
  0.00000000E+00  0.00000000E+00  0.00000000E+00
  0.00000000E+00  0.00000000E+00  0.00000000E+00
  0.00000000E+00  0.00000000E+00  0.00000000E+00
  0.00000000E+00  0.00000000E+00  0.00000000E+00
  0.00000000E+00  0.00000000E+00  0.00000000E+00
  0.00000000E+00  0.00000000E+00  0.00000000E+00
  0.00000000E+00  0.00000000E+00  0.00000000E+00
  0.00000000E+00  0.00000000E+00  0.00000000E+00
  0.00000000E+00  0.00000000E+00  0.00000000E+00
  0.00000000E+00  0.00000000E+00  0.00000000E+00
  0.00000000E+00  0.00000000E+00  0.00000000E+00
  0.00000000E+00  0.00000000E+00  0.00000000E+00
  0.00000000E+00  0.00000000E+00  0.00000000E+00
  0.00000000E+00  0.00000000E+00  0.00000000E+00
  0.00000000E+00  0.00000000E+00  0.00000000E+00
  0.00000000E+00  0.00000000E+00  0.00000000E+00
  0.00000000E+00  0.00000000E+00  0.00000000E+00
  0.00000000E+00  0.00000000E+00  0.00000000E+00
  0.00000000E+00  0.00000000E+00  0.00000000E+00
  0.00000000E+00  0.00000000E+00  0.00000000E+00
  0.00000000E+00  0.00000000E+00  0.00000000E+00
  0.00000000E+00  0.00000000E+00  0.00000000E+00
  0.00000000E+00  0.00000000E+00  0.00000000E+00
  0.00000000E+00  0.00000000E+00  0.00000000E+00
  0.00000000E+00  0.00000000E+00  0.00000000E+00
