LYC-164-space-group                     
   1.00000000000000     
    11.3393121675368995    0.0000000215239819    0.0000000000000000
    -5.6696561024087639    9.8201323877561855    0.0000000000000000
     0.0000000000000000    0.0000000000000000   12.3893483621718516
   Cl   Li   Y 
    36    18     6
Direct
  0.1208801125999750  0.8928305334022253  0.3674122372034536
  0.1213832315708183  0.2429549367464187  0.3849294912344779
  0.7641339467739688  0.8951613937822622  0.3804141610464686
  0.8988090691709544  0.1188984811337808  0.6112506235331170
  0.2341522237647719  0.1102920486986976  0.5991894302858985
  0.8910880497122508  0.7708820949195243  0.5926279589547953
  0.0807807608408707  0.8743326065147828  0.8806084771601509
  0.1275755956907701  0.2223623062179058  0.8838632547321907
  0.7732191691445478  0.9149185966374048  0.8924768399638552
  0.8846323280525465  0.1160743420649930  0.1326938111490565
  0.2299951202258013  0.1257232345144458  0.1213575732733671
  0.8881626472376541  0.7754614854106012  0.1221131183071344
  0.2114091397366042  0.7832145399013807  0.1305040883968098
  0.2191495155354486  0.4417208932453326  0.1434337974011592
  0.5628018227540635  0.7936831190569646  0.1380290657119858
  0.7888875286557999  0.2216389375487971  0.8549355372789348
  0.4390420522608103  0.1986608076588417  0.8556043484569824
  0.7559423699550897  0.5377163248477432  0.8752573207376209
  0.2346734423458452  0.8003014588754616  0.6343751114217223
  0.2118864405609910  0.4388830904128550  0.6341516037623217
  0.5750432727413566  0.7927258132982394  0.6370936347796663
  0.7854203388576044  0.2322660170182751  0.3606369687234923
  0.4399223631710641  0.2208395121535962  0.3562296418263038
  0.7777834067418362  0.5706327148483944  0.3523687679944887
  0.4609414707825596  0.5496577177646172  0.3840631062046108
  0.4542941984692592  0.9191260795450078  0.3728261074012028
  0.0846292562208202  0.5525314476092256  0.3826612909705959
  0.5547250306905942  0.4366651726030736  0.6136545642692737
  0.8999438501840034  0.4459474497635985  0.6306612956927768
  0.5706469271973809  0.1050332593015852  0.6249961768792354
  0.4305989453668699  0.5645678796202106  0.8882603566232603
  0.4329652522253430  0.8716095543132404  0.8849080931059983
  0.1278831984191539  0.5637563302617000  0.8808913194206260
  0.5403963153368275  0.4430161799217174  0.1272086872123147
  0.8968510271986474  0.4599165209150015  0.1270486592045185
  0.5658964265281587  0.1135042251114016  0.1245815514721513
  0.7076325383390950  0.0517021048531838  0.0011769498589531
  0.9505993833791447  0.6616005992113779  0.9802074101766818
  0.3489545896518942  0.3010392936811481  0.9768244301192520
  0.3727785906600808  0.0235780508986841  0.4958034483663114
 -0.0112143526832842  0.3544582428473779  0.4958900945784948
  0.6623646858818821  0.6348450776703300  0.5009202918732795
  0.6256398605202061  0.9663223643340866  0.4983214512689439
  0.0201856336569241  0.6594892046945849  0.5249841299758204
  0.3434445789608263  0.3616531217672782  0.5127185787064347
  0.3342720865166408  0.9987096080013834  0.2375973809330274
  0.0071963953151598  0.3642078291869973  0.2455548619262704
  0.6449152540820926  0.6613974295568783  0.2424283960520079
  0.2635910694557372  0.0002679684168989  0.7621130775895073
  0.0217880142212182  0.3221050822852599  0.7801084272138546
  0.7147472537430551  0.0111041522582971  0.7429889853891239
  0.6552015148300114  0.0032482284458600  0.2571626235268695
  0.0118003114508218  0.6686271357964136  0.2558486656954346
  0.3427137245047706  0.3592698119071019  0.2591401495636340
 -0.0026079465539840  0.0047790889561620  0.0092283324513510
  0.0024056803667518 -0.0006327850981691  0.4854186045893940
  0.6673446158957690  0.3397695125125972  0.7437593282585198
  0.3397847863876328  0.6707083546591476  0.7355606064442622
  0.6677562963627066  0.3410753350937702  0.2395847685934448
  0.3323086773514137  0.6678789348733311  0.0365313440571208
 
  0.00000000E+00  0.00000000E+00  0.00000000E+00
  0.00000000E+00  0.00000000E+00  0.00000000E+00
  0.00000000E+00  0.00000000E+00  0.00000000E+00
  0.00000000E+00  0.00000000E+00  0.00000000E+00
  0.00000000E+00  0.00000000E+00  0.00000000E+00
  0.00000000E+00  0.00000000E+00  0.00000000E+00
  0.00000000E+00  0.00000000E+00  0.00000000E+00
  0.00000000E+00  0.00000000E+00  0.00000000E+00
  0.00000000E+00  0.00000000E+00  0.00000000E+00
  0.00000000E+00  0.00000000E+00  0.00000000E+00
  0.00000000E+00  0.00000000E+00  0.00000000E+00
  0.00000000E+00  0.00000000E+00  0.00000000E+00
  0.00000000E+00  0.00000000E+00  0.00000000E+00
  0.00000000E+00  0.00000000E+00  0.00000000E+00
  0.00000000E+00  0.00000000E+00  0.00000000E+00
  0.00000000E+00  0.00000000E+00  0.00000000E+00
  0.00000000E+00  0.00000000E+00  0.00000000E+00
  0.00000000E+00  0.00000000E+00  0.00000000E+00
  0.00000000E+00  0.00000000E+00  0.00000000E+00
  0.00000000E+00  0.00000000E+00  0.00000000E+00
  0.00000000E+00  0.00000000E+00  0.00000000E+00
  0.00000000E+00  0.00000000E+00  0.00000000E+00
  0.00000000E+00  0.00000000E+00  0.00000000E+00
  0.00000000E+00  0.00000000E+00  0.00000000E+00
  0.00000000E+00  0.00000000E+00  0.00000000E+00
  0.00000000E+00  0.00000000E+00  0.00000000E+00
  0.00000000E+00  0.00000000E+00  0.00000000E+00
  0.00000000E+00  0.00000000E+00  0.00000000E+00
  0.00000000E+00  0.00000000E+00  0.00000000E+00
  0.00000000E+00  0.00000000E+00  0.00000000E+00
  0.00000000E+00  0.00000000E+00  0.00000000E+00
  0.00000000E+00  0.00000000E+00  0.00000000E+00
  0.00000000E+00  0.00000000E+00  0.00000000E+00
  0.00000000E+00  0.00000000E+00  0.00000000E+00
  0.00000000E+00  0.00000000E+00  0.00000000E+00
  0.00000000E+00  0.00000000E+00  0.00000000E+00
  0.00000000E+00  0.00000000E+00  0.00000000E+00
  0.00000000E+00  0.00000000E+00  0.00000000E+00
  0.00000000E+00  0.00000000E+00  0.00000000E+00
  0.00000000E+00  0.00000000E+00  0.00000000E+00
  0.00000000E+00  0.00000000E+00  0.00000000E+00
  0.00000000E+00  0.00000000E+00  0.00000000E+00
  0.00000000E+00  0.00000000E+00  0.00000000E+00
  0.00000000E+00  0.00000000E+00  0.00000000E+00
  0.00000000E+00  0.00000000E+00  0.00000000E+00
  0.00000000E+00  0.00000000E+00  0.00000000E+00
  0.00000000E+00  0.00000000E+00  0.00000000E+00
  0.00000000E+00  0.00000000E+00  0.00000000E+00
  0.00000000E+00  0.00000000E+00  0.00000000E+00
  0.00000000E+00  0.00000000E+00  0.00000000E+00
  0.00000000E+00  0.00000000E+00  0.00000000E+00
  0.00000000E+00  0.00000000E+00  0.00000000E+00
  0.00000000E+00  0.00000000E+00  0.00000000E+00
  0.00000000E+00  0.00000000E+00  0.00000000E+00
  0.00000000E+00  0.00000000E+00  0.00000000E+00
  0.00000000E+00  0.00000000E+00  0.00000000E+00
  0.00000000E+00  0.00000000E+00  0.00000000E+00
  0.00000000E+00  0.00000000E+00  0.00000000E+00
  0.00000000E+00  0.00000000E+00  0.00000000E+00
  0.00000000E+00  0.00000000E+00  0.00000000E+00
