Li19Y6Cl35F1                            
   1.00000000000000     
    11.1583003997999999    0.0000000000000000    0.0000000000000000
    -5.5791501998999999    9.6633716093000004    0.0000000000000000
     0.0000000000000000    0.0000000000000000   11.9857997893999997
   Cl   F    Cl   Li   Y 
    12     1    23    19     6
Direct
  0.1212602664193408  0.8843391980727736  0.3750939624273582
  0.1202906507465449  0.2349824417251020  0.3790030326210795
  0.7636488250540527  0.8818145509641406  0.3770405765550437
  0.8857104034859845  0.1151323670688988  0.6096597637832394
  0.2262945851847883  0.1143187341963243  0.6150161740934571
  0.8805930539287830  0.7679601663733305  0.6101015070788087
  0.1000217791690094  0.8738288893531843  0.8835521850171363
  0.1249055845070870  0.2237136287885200  0.8801811186335740
  0.7857492503004805  0.9109209666128649  0.8810214986312013
  0.8845432757073347  0.1116234712197839  0.1282445714981396
  0.2357772495454056  0.1198396339989470  0.1274068435705417
  0.9046497130327511  0.7675429597027312  0.1273482038278335
  0.2301979269979831  0.7713283741323588  0.1410481873497086
  0.2273523319827890  0.4350222781834011  0.1316434730706886
  0.5706295238577673  0.7961605543641815  0.1268524819151946
  0.7850584277443139  0.2325395024253454  0.8737581943193793
  0.4318558613395997  0.2200182181684085  0.8633489614774725
  0.7526071297095741  0.5582044971470814  0.8635957049723246
  0.2204270814409891  0.7958585173943422  0.6277581172071720
  0.2097401540974460  0.4277976687809758  0.6375427115521005
  0.5641122540064700  0.7693979567513008  0.6338727639315931
  0.7863044983071411  0.2204264438245479  0.3656853206328979
  0.4411445992644014  0.2267785002966167  0.3709720750412974
  0.7770694963600598  0.5639307007458999  0.3720750462099113
  0.4527995513091469  0.5516323718963860  0.3744539446814596
  0.4545208521172792  0.9076523384759962  0.3739008281947047
  0.0966375575363265  0.5458276417758946  0.3754689566547393
  0.5392162240746987  0.4409882930211509  0.6281675909917954
  0.8966329306311247  0.4408927158849971  0.6266465583717336
  0.5413988056559059  0.1010327967800411  0.6278817620078221
  0.4309909363574081  0.5564831818005884  0.8871374878424646
  0.4410059049697129  0.8964122913411440  0.8844904223306934
  0.1046354265412753  0.5572148031685348  0.8873263447120773
  0.5527584173179720  0.4464963057622988  0.1260018463257447
  0.9017675163019434  0.4579376635684629  0.1269950085294872
  0.5595286843501180  0.1084680471997514  0.1259821393800228
  0.6841204905856305  0.0226387888964995  0.9887250853275912
  0.9527255306762861  0.6462085765053566  0.9709314598268239
  0.3379337202333195  0.3260432958897563  0.0052394865153145
  0.3495647771422324  0.9998743503667833  0.4884993744152384
  0.0000042954150329  0.3469183711492757  0.4940624288022854
  0.6446712972133569  0.6477574454222870  0.4973169701284015
  0.6337055994741709  0.9779413450322112  0.5182807538625708
  0.0059033953240958  0.6498914959268051  0.5013751310778635
  0.3482510491985492  0.3566746759867725  0.4929528128049462
  0.3344984319683149  0.9478190067937591  0.2145414781653960
  0.0110191395051762  0.3451842863450287  0.2346598792563129
  0.6468420459609895  0.6620980446387918  0.2401442409232939
  0.3199993149555936  0.3192505928378779  0.7484989050968468
  0.3006579527327603  0.9915434917885306  0.7662170122102785
  0.9888855791481285  0.2931366234785424  0.7660659095691764
  0.7106525731518395  0.7205807911177422  0.7617433304316830
  0.6532458569330215  0.9932765198770395  0.2549793112020285
  0.0661874934694439  0.6771377184847364  0.2327194605857403
  0.3453598047494352  0.3520784495564618  0.2544701108490384
  0.0030393028443932  0.9969309205041810  0.0113737792109368
  0.9973199818644557  0.9962811734342080  0.4912999551574659
  0.6675829729118925  0.3317745223992783  0.7459824970298393
  0.3261846425208547  0.6726987067702874  0.7474994215141764
  0.6713144467041591  0.3383878953219360  0.2494931575497716
  0.3236640489638728  0.6785247135095656  0.0298427010470797
 
  0.00000000E+00  0.00000000E+00  0.00000000E+00
  0.00000000E+00  0.00000000E+00  0.00000000E+00
  0.00000000E+00  0.00000000E+00  0.00000000E+00
  0.00000000E+00  0.00000000E+00  0.00000000E+00
  0.00000000E+00  0.00000000E+00  0.00000000E+00
  0.00000000E+00  0.00000000E+00  0.00000000E+00
  0.00000000E+00  0.00000000E+00  0.00000000E+00
  0.00000000E+00  0.00000000E+00  0.00000000E+00
  0.00000000E+00  0.00000000E+00  0.00000000E+00
  0.00000000E+00  0.00000000E+00  0.00000000E+00
  0.00000000E+00  0.00000000E+00  0.00000000E+00
  0.00000000E+00  0.00000000E+00  0.00000000E+00
  0.00000000E+00  0.00000000E+00  0.00000000E+00
  0.00000000E+00  0.00000000E+00  0.00000000E+00
  0.00000000E+00  0.00000000E+00  0.00000000E+00
  0.00000000E+00  0.00000000E+00  0.00000000E+00
  0.00000000E+00  0.00000000E+00  0.00000000E+00
  0.00000000E+00  0.00000000E+00  0.00000000E+00
  0.00000000E+00  0.00000000E+00  0.00000000E+00
  0.00000000E+00  0.00000000E+00  0.00000000E+00
  0.00000000E+00  0.00000000E+00  0.00000000E+00
  0.00000000E+00  0.00000000E+00  0.00000000E+00
  0.00000000E+00  0.00000000E+00  0.00000000E+00
  0.00000000E+00  0.00000000E+00  0.00000000E+00
  0.00000000E+00  0.00000000E+00  0.00000000E+00
  0.00000000E+00  0.00000000E+00  0.00000000E+00
  0.00000000E+00  0.00000000E+00  0.00000000E+00
  0.00000000E+00  0.00000000E+00  0.00000000E+00
  0.00000000E+00  0.00000000E+00  0.00000000E+00
  0.00000000E+00  0.00000000E+00  0.00000000E+00
  0.00000000E+00  0.00000000E+00  0.00000000E+00
  0.00000000E+00  0.00000000E+00  0.00000000E+00
  0.00000000E+00  0.00000000E+00  0.00000000E+00
  0.00000000E+00  0.00000000E+00  0.00000000E+00
  0.00000000E+00  0.00000000E+00  0.00000000E+00
  0.00000000E+00  0.00000000E+00  0.00000000E+00
  0.00000000E+00  0.00000000E+00  0.00000000E+00
  0.00000000E+00  0.00000000E+00  0.00000000E+00
  0.00000000E+00  0.00000000E+00  0.00000000E+00
  0.00000000E+00  0.00000000E+00  0.00000000E+00
  0.00000000E+00  0.00000000E+00  0.00000000E+00
  0.00000000E+00  0.00000000E+00  0.00000000E+00
  0.00000000E+00  0.00000000E+00  0.00000000E+00
  0.00000000E+00  0.00000000E+00  0.00000000E+00
  0.00000000E+00  0.00000000E+00  0.00000000E+00
  0.00000000E+00  0.00000000E+00  0.00000000E+00
  0.00000000E+00  0.00000000E+00  0.00000000E+00
  0.00000000E+00  0.00000000E+00  0.00000000E+00
  0.00000000E+00  0.00000000E+00  0.00000000E+00
  0.00000000E+00  0.00000000E+00  0.00000000E+00
  0.00000000E+00  0.00000000E+00  0.00000000E+00
  0.00000000E+00  0.00000000E+00  0.00000000E+00
  0.00000000E+00  0.00000000E+00  0.00000000E+00
  0.00000000E+00  0.00000000E+00  0.00000000E+00
  0.00000000E+00  0.00000000E+00  0.00000000E+00
  0.00000000E+00  0.00000000E+00  0.00000000E+00
  0.00000000E+00  0.00000000E+00  0.00000000E+00
  0.00000000E+00  0.00000000E+00  0.00000000E+00
  0.00000000E+00  0.00000000E+00  0.00000000E+00
  0.00000000E+00  0.00000000E+00  0.00000000E+00
  0.00000000E+00  0.00000000E+00  0.00000000E+00
