 vasp.5.4.4.18Apr17-6-g9f103f2a35 (build Feb 24 2022 11:29:53) complex          
  
 executed on             LinuxIFC date 2024.04.23  10:32:27
 running on   60 total cores
 distrk:  each k-point on   60 cores,    1 groups
 distr:  one band on NCORES_PER_BAND=   1 cores,   60 groups


--------------------------------------------------------------------------------------------------------


 INCAR:
 POTCAR:    PAW_PBE Cl 17Jan2003                  
 POTCAR:   PAW_PBE F 08Apr2002                    
 POTCAR:    PAW_PBE Cl 17Jan2003                  
 POTCAR:    PAW_PBE Li 17Jan2003                  
 POTCAR:   PAW_PBE Y_sv 06Sep2000                 

 ----------------------------------------------------------------------------- 
|                                                                             |
|           W    W    AA    RRRRR   N    N  II  N    N   GGGG   !!!           |
|           W    W   A  A   R    R  NN   N  II  NN   N  G    G  !!!           |
|           W    W  A    A  R    R  N N  N  II  N N  N  G       !!!           |
|           W WW W  AAAAAA  RRRRR   N  N N  II  N  N N  G  GGG   !            |
|           WW  WW  A    A  R   R   N   NN  II  N   NN  G    G                |
|           W    W  A    A  R    R  N    N  II  N    N   GGGG   !!!           |
|                                                                             |
|      For optimal performance we recommend to set                            |
|        NCORE= 4 - approx SQRT( number of cores)                             |
|      NCORE specifies how many cores store one orbital (NPAR=cpu/NCORE).     |
|      This setting can  greatly improve the performance of VASP for DFT.     |
|      The default,   NCORE=1            might be grossly inefficient         |
|      on modern multi-core architectures or massively parallel machines.     |
|      Do your own testing !!!!                                               |
|      Unfortunately you need to use the default for GW and RPA calculations. |
|      (for HF NCORE is supported but not extensively tested yet)             |
|                                                                             |
 ----------------------------------------------------------------------------- 

 POTCAR:    PAW_PBE Cl 17Jan2003                  
   VRHFIN =Cl: s2p5                                                             
   LEXCH  = PE                                                                  
   EATOM  =   409.7259 eV,   30.1140 Ry                                         
                                                                                
   TITEL  = PAW_PBE Cl 17Jan2003                                                
   LULTRA =        F    use ultrasoft PP ?                                      
   IUNSCR =        1    unscreen: 0-lin 1-nonlin 2-no                           
   RPACOR =    1.500    partial core radius                                     
   POMASS =   35.453; ZVAL   =    7.000    mass and valenz                      
   RCORE  =    1.900    outmost cutoff radius                                   
   RWIGS  =    2.100; RWIGS  =    1.111    wigner-seitz radius (au A)           
   ENMAX  =  280.000; ENMIN  =  196.854 eV                                      
   ICORE  =        2    local potential                                         
   LCOR   =        T    correct aug charges                                     
   LPAW   =        T    paw PP                                                  
   EAUG   =  356.192                                                            
   DEXC   =     .000                                                            
   RMAX   =    2.846    core radius for proj-oper                               
   RAUG   =    1.300    factor for augmentation sphere                          
   RDEP   =    2.020    radius for radial grids                                 
   QCUT   =   -4.392; QGAM   =    8.784    optimization parameters              
                                                                                
   Description                                                                  
     l     E      TYP  RCUT    TYP  RCUT                                        
     0   .000     23  1.900                                                     
     0   .000     23  1.900                                                     
     1   .000     23  1.900                                                     
     1   .000     23  1.900                                                     
     2   .000     23  1.900                                                     
  local pseudopotential read in
  partial core-charges read in
  atomic valenz-charges read in
  non local Contribution for L=           0  read in
    real space projection operators read in
  non local Contribution for L=           0  read in
    real space projection operators read in
  non local Contribution for L=           1  read in
    real space projection operators read in
  non local Contribution for L=           1  read in
    real space projection operators read in
    PAW grid and wavefunctions read in
 
   number of l-projection  operators is LMAX  =           4
   number of lm-projection operators is LMMAX =           8
 
 POTCAR:   PAW_PBE F 08Apr2002                    
   VRHFIN =F: s2p5                                                              
   LEXCH  = PE                                                                  
   EATOM  =   659.4942 eV,   48.4715 Ry                                         
                                                                                
   TITEL  = PAW_PBE F 08Apr2002                                                 
   LULTRA =        F    use ultrasoft PP ?                                      
   IUNSCR =        0    unscreen: 0-lin 1-nonlin 2-no                           
   RPACOR =     .000    partial core radius                                     
   POMASS =   18.998; ZVAL   =    7.000    mass and valenz                      
   RCORE  =    1.520    outmost cutoff radius                                   
   RWIGS  =    1.500; RWIGS  =     .794    wigner-seitz radius (au A)           
   ENMAX  =  400.000; ENMIN  =  300.000 eV                                      
   ICORE  =        2    local potential                                         
   LCOR   =        T    correct aug charges                                     
   LPAW   =        T    paw PP                                                  
   EAUG   =  613.614                                                            
   DEXC   =     .000                                                            
   RMAX   =    2.254    core radius for proj-oper                               
   RAUG   =    1.300    factor for augmentation sphere                          
   RDEP   =    1.539    radius for radial grids                                 
   QCUT   =   -5.545; QGAM   =   11.091    optimization parameters              
                                                                                
   Description                                                                  
     l     E      TYP  RCUT    TYP  RCUT                                        
     0   .000     23  1.200                                                     
     0  -.700     23  1.200                                                     
     1   .000     23  1.520                                                     
     1   .100     23  1.520                                                     
     2   .000      7  1.500                                                     
  local pseudopotential read in
  atomic valenz-charges read in
  non local Contribution for L=           0  read in
    real space projection operators read in
  non local Contribution for L=           0  read in
    real space projection operators read in
  non local Contribution for L=           1  read in
    real space projection operators read in
  non local Contribution for L=           1  read in
    real space projection operators read in
    PAW grid and wavefunctions read in
 
   number of l-projection  operators is LMAX  =           4
   number of lm-projection operators is LMMAX =           8
 
 POTCAR:    PAW_PBE Cl 17Jan2003                  
   VRHFIN =Cl: s2p5                                                             
   LEXCH  = PE                                                                  
   EATOM  =   409.7259 eV,   30.1140 Ry                                         
                                                                                
   TITEL  = PAW_PBE Cl 17Jan2003                                                
   LULTRA =        F    use ultrasoft PP ?                                      
   IUNSCR =        1    unscreen: 0-lin 1-nonlin 2-no                           
   RPACOR =    1.500    partial core radius                                     
   POMASS =   35.453; ZVAL   =    7.000    mass and valenz                      
   RCORE  =    1.900    outmost cutoff radius                                   
   RWIGS  =    2.100; RWIGS  =    1.111    wigner-seitz radius (au A)           
   ENMAX  =  280.000; ENMIN  =  196.854 eV                                      
   ICORE  =        2    local potential                                         
   LCOR   =        T    correct aug charges                                     
   LPAW   =        T    paw PP                                                  
   EAUG   =  356.192                                                            
   DEXC   =     .000                                                            
   RMAX   =    2.846    core radius for proj-oper                               
   RAUG   =    1.300    factor for augmentation sphere                          
   RDEP   =    2.020    radius for radial grids                                 
   QCUT   =   -4.392; QGAM   =    8.784    optimization parameters              
                                                                                
   Description                                                                  
     l     E      TYP  RCUT    TYP  RCUT                                        
     0   .000     23  1.900                                                     
     0   .000     23  1.900                                                     
     1   .000     23  1.900                                                     
     1   .000     23  1.900                                                     
     2   .000     23  1.900                                                     
  local pseudopotential read in
  partial core-charges read in
  atomic valenz-charges read in
  non local Contribution for L=           0  read in
    real space projection operators read in
  non local Contribution for L=           0  read in
    real space projection operators read in
  non local Contribution for L=           1  read in
    real space projection operators read in
  non local Contribution for L=           1  read in
    real space projection operators read in
    PAW grid and wavefunctions read in
 
   number of l-projection  operators is LMAX  =           4
   number of lm-projection operators is LMMAX =           8
 
 POTCAR:    PAW_PBE Li 17Jan2003                  
   VRHFIN =Li: s1p0                                                             
   LEXCH  = PE                                                                  
   EATOM  =     5.3001 eV,     .3895 Ry                                         
                                                                                
   TITEL  = PAW_PBE Li 17Jan2003                                                
   LULTRA =        F    use ultrasoft PP ?                                      
   IUNSCR =        1    unscreen: 0-lin 1-nonlin 2-no                           
   RPACOR =    1.500    partial core radius                                     
   POMASS =    7.010; ZVAL   =    1.000    mass and valenz                      
   RCORE  =    2.050    outmost cutoff radius                                   
   RWIGS  =    2.600; RWIGS  =    1.376    wigner-seitz radius (au A)           
   ENMAX  =  140.000; ENMIN  =  100.000 eV                                      
   ICORE  =        2    local potential                                         
   LCOR   =        T    correct aug charges                                     
   LPAW   =        T    paw PP                                                  
   EAUG   =  331.638                                                            
   DEXC   =    -.010                                                            
   RMAX   =    4.263    core radius for proj-oper                               
   RAUG   =    1.300    factor for augmentation sphere                          
   RDEP   =    2.094    radius for radial grids                                 
   QCUT   =   -2.932; QGAM   =    5.865    optimization parameters              
                                                                                
   Description                                                                  
     l     E      TYP  RCUT    TYP  RCUT                                        
     0   .000     23  2.050                                                     
     0  2.000     23  2.050                                                     
     1   .000     23  2.050                                                     
     2   .000     23  2.050                                                     
  local pseudopotential read in
  partial core-charges read in
  atomic valenz-charges read in
  non local Contribution for L=           0  read in
    real space projection operators read in
  non local Contribution for L=           0  read in
    real space projection operators read in
  non local Contribution for L=           1  read in
    real space projection operators read in
    PAW grid and wavefunctions read in
 
   number of l-projection  operators is LMAX  =           3
   number of lm-projection operators is LMMAX =           5
 
 POTCAR:   PAW_PBE Y_sv 06Sep2000                 
   VRHFIN =Y: 4s4p5s4d                                                          
   LEXCH  = PE                                                                  
   EATOM  =  1046.2256 eV,   76.8954 Ry                                         
                                                                                
   TITEL  = PAW_PBE Y_sv 06Sep2000                                              
   LULTRA =        F    use ultrasoft PP ?                                      
   IUNSCR =        1    unscreen: 0-lin 1-nonlin 2-no                           
   RPACOR =    2.200    partial core radius                                     
   POMASS =   88.906; ZVAL   =   11.000    mass and valenz                      
   RCORE  =    2.600    outmost cutoff radius                                   
   RWIGS  =    3.430; RWIGS  =    1.815    wigner-seitz radius (au A)           
   ENMAX  =  211.641; ENMIN  =  158.731 eV                                      
   RCLOC  =    2.212    cutoff for local pot                                    
   LCOR   =        T    correct aug charges                                     
   LPAW   =        T    paw PP                                                  
   EAUG   =  363.258                                                            
   DEXC   =     .000                                                            
   RMAX   =    3.169    core radius for proj-oper                               
   RAUG   =    1.300    factor for augmentation sphere                          
   RDEP   =    2.745    radius for radial grids                                 
   QCUT   =   -3.944; QGAM   =    7.888    optimization parameters              
                                                                                
   Description                                                                  
     l     E      TYP  RCUT    TYP  RCUT                                        
     0   .000     23  2.600                                                     
     0   .000     23  2.600                                                     
     1   .000     23  2.600                                                     
     1   .000     23  2.600                                                     
     2   .000     23  2.600                                                     
     2   .000     23  2.600                                                     
     3   .000      7   .000                                                     
  local pseudopotential read in
  partial core-charges read in
  atomic valenz-charges read in
  non local Contribution for L=           0  read in
    real space projection operators read in
  non local Contribution for L=           0  read in
    real space projection operators read in
  non local Contribution for L=           1  read in
    real space projection operators read in
  non local Contribution for L=           1  read in
    real space projection operators read in
  non local Contribution for L=           2  read in
    real space projection operators read in
  non local Contribution for L=           2  read in
    real space projection operators read in
    PAW grid and wavefunctions read in
 
   number of l-projection  operators is LMAX  =           6
   number of lm-projection operators is LMMAX =          18
 

 ----------------------------------------------------------------------------- 
|                                                                             |
|  ADVICE TO THIS USER RUNNING 'VASP/VAMP'   (HEAR YOUR MASTER'S VOICE ...):  |
|                                                                             |
|      You have a (more or less) 'large supercell' and for larger cells       |
|      it might be more efficient to use real space projection operators      |
|      So try LREAL= Auto  in the INCAR   file.                               |
|      Mind: If you want to do a very accurate calculations keep the          |
|      reciprocal projection scheme          (i.e. LREAL=.FALSE.)             |
|                                                                             |
 ----------------------------------------------------------------------------- 

  PAW_PBE Cl 17Jan2003                  :
 energy of atom  1       EATOM= -409.7259
 kinetic energy error for atom=    0.0023 (will be added to EATOM!!)
 PAW_PBE F 08Apr2002                    :
 energy of atom  2       EATOM= -659.4942
 kinetic energy error for atom=    0.0323 (will be added to EATOM!!)
  PAW_PBE Cl 17Jan2003                  :
 energy of atom  3       EATOM= -409.7259
 kinetic energy error for atom=    0.0023 (will be added to EATOM!!)
  PAW_PBE Li 17Jan2003                  :
 energy of atom  4       EATOM=   -5.3001
 kinetic energy error for atom=    0.0000 (will be added to EATOM!!)
 PAW_PBE Y_sv 06Sep2000                 :
 energy of atom  5       EATOM=-1046.2256
 kinetic energy error for atom=    0.0009 (will be added to EATOM!!)
 
 
 POSCAR: Li19Y6Cl35F1                            
  positions in direct lattice
  velocities in cartesian coordinates
 exchange correlation table for  LEXCH =        8
   RHO(1)=    0.500       N(1)  =     2000
   RHO(2)=  100.500       N(2)  =     4000
 


--------------------------------------------------------------------------------------------------------


 ion  position               nearest neighbor table
   1  0.121  0.884  0.375-  40 2.59  57 2.67  54 2.68  44 2.72  46 2.86
   2  0.120  0.235  0.379-  45 2.59  41 2.63  55 2.64  57 2.67  47 2.74
   3  0.764  0.882  0.377-  53 2.60  57 2.64  42 2.68  48 2.68  43 2.77
   4  0.886  0.115  0.610-  51 2.55  41 2.63  57 2.64  43 2.67
   5  0.226  0.114  0.615-  49 2.55  50 2.64  57 2.66  40 2.75  45 2.76
   6  0.881  0.768  0.610-  52 2.48  57 2.63  42 2.65  44 2.69
   7  0.100  0.874  0.884-  50 2.40  38 2.47  56 2.62
   8  0.125  0.224  0.880-  51 2.44  49 2.46  39 2.55  56 2.70
   9  0.786  0.911  0.881-  52 2.34  37 2.43  56 2.63
  10  0.885  0.112  0.128-  37 2.56  47 2.59  56 2.66  53 2.70
  11  0.236  0.120  0.127-  39 2.47  56 2.65  55 2.71  46 2.85
  12  0.905  0.768  0.127-  38 2.52  56 2.62  54 2.77  48 2.85
  13  0.230  0.771  0.141-  46 1.93  54 1.93  61 2.24
  14  0.227  0.435  0.132-  47 2.44  55 2.44  39 2.61  61 2.67
  15  0.571  0.796  0.127-  53 2.45  48 2.46  61 2.66  37 2.74
  16  0.785  0.232  0.874-  51 2.40  37 2.45  58 2.60
  17  0.432  0.220  0.863-  49 2.46  50 2.50  39 2.57  58 2.68
  18  0.753  0.558  0.864-  38 2.33  52 2.42  58 2.62
  19  0.220  0.796  0.628-  50 2.52  40 2.60  44 2.60  59 2.64
  20  0.210  0.428  0.637-  49 2.50  51 2.65  41 2.67  45 2.69  59 2.71
  21  0.564  0.769  0.634-  43 2.48  52 2.49  42 2.56  59 2.69
  22  0.786  0.220  0.366-  53 2.58  41 2.58  60 2.65  47 2.68
  23  0.441  0.227  0.371-  55 2.56  45 2.61  40 2.62  60 2.66
  24  0.777  0.564  0.372-  42 2.59  60 2.63  44 2.72  48 2.72
  25  0.453  0.552  0.374-  45 2.36  42 2.37  55 2.41  48 2.48
  26  0.454  0.908  0.374-  40 2.35  53 2.40  43 2.46  46 2.50
  27  0.097  0.546  0.375-  54 2.38  41 2.39  44 2.41  47 2.58
  28  0.539  0.441  0.628-  45 2.46  42 2.54  49 2.57  58 2.70
  29  0.897  0.441  0.627-  41 2.48  44 2.52  58 2.64  51 2.88
  30  0.541  0.101  0.628-  43 2.47  40 2.50  58 2.64  50 2.86
  31  0.431  0.556  0.887-  39 2.65  59 2.71  61 2.80  49 2.83
  32  0.441  0.897  0.884-  37 2.66  50 2.69  59 2.71  61 2.73
  33  0.105  0.557  0.887-  38 2.56  59 2.72  61 2.72  51 2.94
  34  0.553  0.447  0.126-  48 2.50  55 2.53  39 2.53  60 2.64
  35  0.902  0.458  0.127-  47 2.50  54 2.54  38 2.65  60 2.67
  36  0.559  0.108  0.126-  46 2.48  53 2.55  37 2.62  60 2.67
  37  0.684  0.023  0.989-   9 2.43  16 2.45  10 2.56  36 2.62  32 2.66  15 2.74  53 3.21  56 3.72

  38  0.953  0.646  0.971-  18 2.33   7 2.47  12 2.52  33 2.56  35 2.65  56 3.70
  39  0.338  0.326  0.005-  11 2.47  34 2.53   8 2.55  17 2.57  14 2.61  31 2.65  55 3.00  49 3.08
                            56 3.71
  40  0.350  1.000  0.488-  26 2.35  30 2.50   1 2.59  19 2.60  23 2.62   5 2.75
  41  0.000  0.347  0.494-  27 2.39  29 2.48  22 2.58   4 2.63   2 2.63  20 2.67  47 3.11
  42  0.645  0.648  0.497-  25 2.37  28 2.54  21 2.56  24 2.59   6 2.65   3 2.68  48 3.09  52 3.26
                            45 3.28
  43  0.634  0.978  0.518-  26 2.46  30 2.47  21 2.48   4 2.67   3 2.77  53 3.16
  44  0.006  0.650  0.501-  27 2.41  29 2.52  19 2.60   6 2.69  24 2.72   1 2.72  54 3.27
  45  0.348  0.357  0.493-  25 2.36  28 2.46   2 2.59  23 2.61  20 2.69   5 2.76  55 2.86  49 3.09
                            42 3.28
  46  0.335  0.948  0.215-  13 1.93  36 2.48  26 2.50  11 2.85   1 2.86  54 3.01  61 3.69
  47  0.011  0.345  0.235-  14 2.44  35 2.50  27 2.58  10 2.59  22 2.68   2 2.74  41 3.11  60 3.76

  48  0.647  0.662  0.240-  15 2.46  25 2.48  34 2.50   3 2.68  24 2.72  12 2.85  42 3.09  60 3.76

  49  0.320  0.319  0.749-   8 2.46  17 2.46  20 2.50   5 2.55  28 2.57  31 2.83  39 3.08  45 3.09
                            58 3.81
  50  0.301  0.991  0.766-   7 2.40  17 2.50  19 2.52   5 2.64  32 2.69  30 2.86  59 3.71
  51  0.989  0.293  0.766-  16 2.40   8 2.44   4 2.55  20 2.65  29 2.88  33 2.94  58 3.83
  52  0.711  0.721  0.762-   9 2.34  18 2.42   6 2.48  21 2.49  42 3.26
  53  0.653  0.993  0.255-  26 2.40  15 2.45  36 2.55  22 2.58   3 2.60  10 2.70  43 3.16  37 3.21
                            60 3.76
  54  0.066  0.677  0.233-  13 1.93  27 2.38  35 2.54   1 2.68  12 2.77  46 3.01  44 3.27  61 3.76

  55  0.345  0.352  0.254-  25 2.41  14 2.44  34 2.53  23 2.56   2 2.64  11 2.71  45 2.86  39 3.00
                            60 3.72
  56  0.003  0.997  0.011-  12 2.62   7 2.62   9 2.63  11 2.65  10 2.66   8 2.70  38 3.70  39 3.71
                            37 3.72
  57  0.997  0.996  0.491-   6 2.63   3 2.64   4 2.64   5 2.66   1 2.67   2 2.67
  58  0.667  0.332  0.746-  16 2.60  18 2.62  29 2.64  30 2.64  17 2.68  28 2.70  49 3.81  51 3.83

  59  0.326  0.673  0.748-  19 2.64  21 2.69  20 2.71  31 2.71  32 2.71  33 2.72  61 3.38  50 3.71

  60  0.671  0.338  0.249-  24 2.63  34 2.64  22 2.65  23 2.66  35 2.67  36 2.67  55 3.72  53 3.76
                            48 3.76  47 3.76
  61  0.324  0.679  0.030-  13 2.24  15 2.66  14 2.67  33 2.72  32 2.73  31 2.80  59 3.38  46 3.69
                            54 3.76
 
  LATTYP: Found a hexagonal cell.
 ALAT       =    11.1583003998
 C/A-ratio  =     1.0741599849
  
  Lattice vectors:
  
 A1 = (  11.1583003998,   0.0000000000,   0.0000000000)
 A2 = (  -5.5791501999,   9.6633716093,   0.0000000000)
 A3 = (   0.0000000000,   0.0000000000,  11.9857997894)


Analysis of symmetry for initial positions (statically):
=====================================================================
 Subroutine PRICEL returns:
 Original cell was already a primitive cell.
 

 Routine SETGRP: Setting up the symmetry group for a 
 hexagonal supercell.


 Subroutine GETGRP returns: Found  1 space group operations
 (whereof  1 operations were pure point group operations)
 out of a pool of 24 trial point group operations.


The static configuration has the point symmetry C_1 .


Analysis of symmetry for dynamics (positions and initial velocities):
=====================================================================
 Subroutine PRICEL returns:
 Original cell was already a primitive cell.
 

 Routine SETGRP: Setting up the symmetry group for a 
 hexagonal supercell.


 Subroutine GETGRP returns: Found  1 space group operations
 (whereof  1 operations were pure point group operations)
 out of a pool of 24 trial point group operations.


The dynamic configuration has the point symmetry C_1 .


 Subroutine INISYM returns: Found  1 space group operations
 (whereof  1 operations are pure point group operations),
 and found     1 'primitive' translations

 
 
 KPOINTS: Automatic mesh                          

Automatic generation of k-mesh.
Space group operators:
 irot       det(A)        alpha          n_x          n_y          n_z        tau_x        tau_y        tau_z
    1     1.000000     0.000000     1.000000     0.000000     0.000000     0.000000     0.000000     0.000000
 
 Subroutine IBZKPT returns following result:
 ===========================================
 
 Found      1 irreducible k-points:
 
 Following reciprocal coordinates:
            Coordinates               Weight
  0.000000  0.000000  0.000000      1.000000
 
 Following cartesian coordinates:
            Coordinates               Weight
  0.000000  0.000000  0.000000      1.000000
 


--------------------------------------------------------------------------------------------------------




 Dimension of arrays:
   k-points           NKPTS =      1   k-points in BZ     NKDIM =      1   number of bands    NBANDS=    240
   number of dos      NEDOS =    301   number of ions     NIONS =     61
   non local maximal  LDIM  =      6   non local SUM 2l+1 LMDIM =     18
   total plane-waves  NPLWV = 635040
   max r-space proj   IRMAX =      1   max aug-charges    IRDMAX=  29431
   dimension x,y,z NGX =    84 NGY =   84 NGZ =   90
   dimension x,y,z NGXF=   168 NGYF=  168 NGZF=  180
   support grid    NGXF=   168 NGYF=  168 NGZF=  180
   ions per type =              12   1  23  19   6
   NGX,Y,Z   is equivalent  to a cutoff of  12.52, 12.52, 12.48 a.u.
   NGXF,Y,Z  is equivalent  to a cutoff of  25.03, 25.03, 24.97 a.u.

 SYSTEM =  "Li19Y6Cl35F1"                          
 POSCAR =  Li19Y6Cl35F1                            

 Startparameter for this run:
   NWRITE =      2    write-flag & timer
   PREC   = a         normal or accurate (medium, high low for compatibility)
   ISTART =      0    job   : 0-new  1-cont  2-samecut
   ICHARG =      2    charge: 1-file 2-atom 10-const
   ISPIN  =      1    spin polarized calculation?
   LNONCOLLINEAR =      F non collinear calculations
   LSORBIT =      F    spin-orbit coupling
   INIWAV =      1    electr: 0-lowe 1-rand  2-diag
   LASPH  =      F    aspherical Exc in radial PAW
   METAGGA=      F    non-selfconsistent MetaGGA calc.

 Electronic Relaxation 1
   ENCUT  =  520.0 eV  38.22 Ry    6.18 a.u.  20.75 20.75 22.29*2*pi/ulx,y,z
   ENINI  =  520.0     initial cutoff
   ENAUG  =  613.6 eV  augmentation charge cutoff
   NELM   =    100;   NELMIN=  6; NELMDL= -5     # of ELM steps 
   EDIFF  = 0.1E-04   stopping-criterion for ELM
   LREAL  =      F    real-space projection
   NLSPLINE    = F    spline interpolate recip. space projectors
   LCOMPAT=      F    compatible to vasp.4.4
   GGA_COMPAT  = T    GGA compatible to vasp.4.4-vasp.4.6
   LMAXPAW     = -100 max onsite density
   LMAXMIX     =    2 max onsite mixed and CHGCAR
   VOSKOWN=      0    Vosko Wilk Nusair interpolation
   ROPT   =    0.00000   0.00000   0.00000   0.00000
   ROPT   =    0.00000
 Ionic relaxation
   EDIFFG = -.5E-01   stopping-criterion for IOM
   NSW    =    200    number of steps for IOM
   NBLOCK =      1;   KBLOCK =    200    inner block; outer block 
   IBRION =      2    ionic relax: 0-MD 1-quasi-New 2-CG
   NFREE  =      1    steps in history (QN), initial steepest desc. (CG)
   ISIF   =      2    stress and relaxation
   IWAVPR =     11    prediction:  0-non 1-charg 2-wave 3-comb
   ISYM   =      2    0-nonsym 1-usesym 2-fastsym
   LCORR  =      T    Harris-Foulkes like correction to forces

   POTIM  = 0.5000    time-step for ionic-motion
   TEIN   =    0.0    initial temperature
   TEBEG  =    0.0;   TEEND  =   0.0 temperature during run
   SMASS  =  -3.00    Nose mass-parameter (am)
   estimated Nose-frequenzy (Omega)   =  0.10E-29 period in steps =****** mass=  -0.285E-26a.u.
   SCALEE = 1.0000    scale energy and forces
   NPACO  =    256;   APACO  = 16.0  distance and # of slots for P.C.
   PSTRESS=    0.0 pullay stress

  Mass of Ions in am
   POMASS =  35.45 19.00 35.45  7.01 88.91
  Ionic Valenz
   ZVAL   =   7.00  7.00  7.00  1.00 11.00
  Atomic Wigner-Seitz radii
   RWIGS  =  -1.00 -1.00 -1.00 -1.00 -1.00
  virtual crystal weights 
   VCA    =   1.00  1.00  1.00  1.00  1.00
   NELECT =     337.0000    total number of electrons
   NUPDOWN=      -1.0000    fix difference up-down

 DOS related values:
   EMIN   =  10.00;   EMAX   =-10.00  energy-range for DOS
   EFERMI =   0.00
   ISMEAR =     0;   SIGMA  =   0.10  broadening in eV -4-tet -1-fermi 0-gaus

 Electronic relaxation 2 (details)
   IALGO  =     38    algorithm
   LDIAG  =      T    sub-space diagonalisation (order eigenvalues)
   LSUBROT=      F    optimize rotation matrix (better conditioning)
   TURBO    =      0    0=normal 1=particle mesh
   IRESTART =      0    0=no restart 2=restart with 2 vectors
   NREBOOT  =      0    no. of reboots
   NMIN     =      0    reboot dimension
   EREF     =   0.00    reference energy to select bands
   IMIX   =      4    mixing-type and parameters
     AMIX     =   0.20;   BMIX     =  0.00
     AMIX_MAG =   0.80;   BMIX_MAG =  0.00
     AMIN     =   0.10
     WC   =   100.;   INIMIX=   1;  MIXPRE=   1;  MAXMIX= -45

 Intra band minimization:
   WEIMIN = 0.0010     energy-eigenvalue tresh-hold
   EBREAK =  0.10E-07  absolut break condition
   DEPER  =   0.30     relativ break condition  

   TIME   =   0.40     timestep for ELM

  volume/ion in A,a.u.               =      21.19       142.98
  Fermi-wavevector in a.u.,A,eV,Ry     =   1.045892  1.976449 14.883281  1.093890
  Thomas-Fermi vector in A             =   2.180707
 
 Write flags
   LWAVE        =      F    write WAVECAR
   LDOWNSAMPLE  =      F    k-point downsampling of WAVECAR
   LCHARG       =      F    write CHGCAR
   LVTOT        =      F    write LOCPOT, total local potential
   LVHAR        =      F    write LOCPOT, Hartree potential only
   LELF         =      F    write electronic localiz. function (ELF)
   LORBIT       =     11    0 simple, 1 ext, 2 COOP (PROOUT), +10 PAW based schemes


 Dipole corrections
   LMONO  =      F    monopole corrections only (constant potential shift)
   LDIPOL =      F    correct potential (dipole corrections)
   IDIPOL =      0    1-x, 2-y, 3-z, 4-all directions 
   EPSILON=  1.0000000 bulk dielectric constant

 Exchange correlation treatment:
   GGA     =    --    GGA type
   LEXCH   =     8    internal setting for exchange type
   VOSKOWN=      0    Vosko Wilk Nusair interpolation
   LHFCALC =     F    Hartree Fock is set to
   LHFONE  =     F    Hartree Fock one center treatment
   AEXX    =    0.0000 exact exchange contribution

 Linear response parameters
   LEPSILON=     F    determine dielectric tensor
   LRPA    =     F    only Hartree local field effects (RPA)
   LNABLA  =     F    use nabla operator in PAW spheres
   LVEL    =     F    velocity operator in full k-point grid
   LINTERFAST=   F  fast interpolation
   KINTER  =     0    interpolate to denser k-point grid
   CSHIFT  =0.1000    complex shift for real part using Kramers Kronig
   OMEGAMAX=  -1.0    maximum frequency
   DEG_THRESHOLD= 0.2000000E-02 threshold for treating states as degnerate
   RTIME   =   -0.100 relaxation time in fs
  (WPLASMAI=    0.000 imaginary part of plasma frequency in eV, 0.658/RTIME)
   DFIELD  = 0.0000000 0.0000000 0.0000000 field for delta impulse in time
 
 Orbital magnetization related:
   ORBITALMAG=     F  switch on orbital magnetization
   LCHIMAG   =     F  perturbation theory with respect to B field
   DQ        =  0.001000  dq finite difference perturbation B field
   LLRAUG    =     F  two centre corrections for induced B field



--------------------------------------------------------------------------------------------------------


 conjugate gradient relaxation of ions
 charge density and potential will be updated during run
 non-spin polarized calculation
 Variant of blocked Davidson
 Davidson routine will perform the subspace rotation
 perform sub-space diagonalisation
    after iterative eigenvector-optimisation
 modified Broyden-mixing scheme, WC =      100.0
 initial mixing is a Kerker type mixing with AMIX =  0.2000 and BMIX =      0.0000
 Hartree-type preconditioning will be used
 using additional bands           71
 reciprocal scheme for non local part
 use partial core corrections
 calculate Harris-corrections to forces 
   (improved forces if not selfconsistent)
 use gradient corrections 
 use of overlap-Matrix (Vanderbilt PP)
 Gauss-broadening in eV      SIGMA  =   0.10


--------------------------------------------------------------------------------------------------------


  energy-cutoff  :      520.00
  volume of cell :     1292.39
      direct lattice vectors                 reciprocal lattice vectors
    11.158300400  0.000000000  0.000000000     0.089619383  0.051741775  0.000000000
    -5.579150200  9.663371609  0.000000000     0.000000000  0.103483550  0.000000000
     0.000000000  0.000000000 11.985799789     0.000000000  0.000000000  0.083432063

  length of vectors
    11.158300400 11.158300400 11.985799789     0.103483550  0.103483550  0.083432063


 
 k-points in units of 2pi/SCALE and weight: Automatic mesh                          
   0.00000000  0.00000000  0.00000000       1.000
 
 k-points in reciprocal lattice and weights: Automatic mesh                          
   0.00000000  0.00000000  0.00000000       1.000
 
 position of ions in fractional coordinates (direct lattice) 
   0.12126944  0.88432901  0.37500240
   0.12030405  0.23504076  0.37885922
   0.76364364  0.88180214  0.37692122
   0.88567595  0.11516313  0.60982567
   0.22630260  0.11428155  0.61510691
   0.88063159  0.76797937  0.61025040
   0.10003732  0.87384532  0.88352696
   0.12487373  0.22369768  0.88010141
   0.78568160  0.91084324  0.88093905
   0.88454346  0.11167855  0.12833400
   0.23581891  0.11985302  0.12749224
   0.90462114  0.76751248  0.12740555
   0.23013186  0.77134823  0.14102058
   0.22732659  0.43502012  0.13172119
   0.57076071  0.79620193  0.12695481
   0.78508274  0.23246925  0.87384214
   0.43181331  0.21998861  0.86346633
   0.75258760  0.55822544  0.86366146
   0.22038780  0.79587811  0.62769326
   0.20974108  0.42776309  0.63741653
   0.56408929  0.76936146  0.63376051
   0.78634704  0.22041008  0.36583044
   0.44112587  0.22678920  0.37105543
   0.77710569  0.56396658  0.37215141
   0.45273868  0.55172957  0.37445799
   0.45443036  0.90753259  0.37392819
   0.09680239  0.54586247  0.37545048
   0.53924215  0.44095445  0.62810064
   0.89665505  0.44093848  0.62658356
   0.54143868  0.10101683  0.62786913
   0.43103885  0.55648029  0.88723179
   0.44111696  0.89656188  0.88440076
   0.10456287  0.55720616  0.88730759
   0.55279368  0.44655000  0.12590054
   0.90183768  0.45794582  0.12694317
   0.55945244  0.10838453  0.12590525
   0.68411552  0.02263395  0.98873140
   0.95266967  0.64614830  0.97090932
   0.33794513  0.32602755  0.00528287
   0.34954029  0.99988886  0.48849660
   0.00001748  0.34691804  0.49405414
   0.64468790  0.64776401  0.49733769
   0.63370934  0.97794518  0.51825262
   0.00585871  0.64988036  0.50129089
   0.34823801  0.35666441  0.49296486
   0.33453065  0.94788387  0.21452427
   0.01102879  0.34512055  0.23460171
   0.64683681  0.66211510  0.24015987
   0.32000699  0.31930786  0.74850359
   0.30057308  0.99148269  0.76625657
   0.98892878  0.29313455  0.76610316
   0.71066187  0.72065808  0.76168599
   0.65312131  0.99321221  0.25498033
   0.06632681  0.67716370  0.23279063
   0.34533791  0.35209992  0.25447256
   0.00304956  0.99684856  0.01127038
   0.99735095  0.99622638  0.49128491
   0.66748766  0.33175977  0.74595241
   0.32610095  0.67265762  0.74778291
   0.67134100  0.33842988  0.24936739
   0.32369252  0.67858763  0.02971473
 
 position of ions in cartesian coordinates  (Angst):
  -3.58064349  8.54559987  4.49470369
   0.03106100  2.27128622  4.54093076
   3.60125861  8.52118174  4.51770227
   9.24012590  1.11286411  7.30924845
   1.88755839  1.10434512  7.37254830
   5.54167956  7.42127007  7.31433909
  -3.75906785  8.44429204 10.58977719
   0.14533564  2.16167382 10.54871928
   3.68514003  8.80181673 10.55875913
   9.24693017  1.07919136  1.53818566
   1.96266024  1.15818431  1.52809646
   5.81196705  7.41675833  1.52705747
  -1.73558716  7.45382455  1.69024441
   0.10953585  4.20376106  1.57878378
   1.92658930  7.69399510  1.52165494
   7.46320815  2.24643678 10.47369690
   3.59095308  2.12583170 10.34933456
   5.28317491  5.39433988 10.35167335
  -1.98117028  7.69086596  7.52340576
  -0.04620052  4.13363373  7.63994695
   2.00189466  7.43462566  7.59612653
   7.54459558  2.12990448  4.38477040
   3.65692399  2.19154831  4.44739606
   5.52472449  5.44981863  4.46053231
   1.97361209  5.33156787  4.48817854
   0.00740980  8.76982464  4.48182845
  -1.96529853  5.27487191  4.50007431
   3.55687474  4.26110675  7.52828850
   7.54508446  4.26095234  7.51010513
   5.47794734  0.97616314  7.52551374
   1.70497391  5.37747582 10.63418258
  -0.07993791  8.66381065 10.60025039
  -1.94199297  5.38449015 10.63509109
   3.67686838  4.31517858  1.50901865
   7.50802718  4.42530065  1.52151546
   5.63784478  1.04736002  1.50907510
   7.50728827  0.21872029 11.85073656
   7.02521593  6.24397113 11.63712471
   1.95193654  3.15052541  0.06331939
  -1.67825461  9.66229761  5.85502239
  -1.93531280  3.35239790  5.92163406
   3.57964858  6.25958434  5.96099002
   1.61501611  9.45024773  6.21167209
  -3.56040685  6.28003538  6.00837221
   1.89586003  3.44658075  5.90857812
  -1.55559302  9.15975409  2.57124494
  -1.80241689  3.33502813  2.81188915
   3.52355981  6.39826429  2.87850817
   1.78926765  3.08559052  8.97141414
  -2.17774610  9.58106567  9.18419785
   9.39932271  2.83266814  9.18235915
   3.90911894  6.96398686  9.12941576
   1.74644363  9.59777868  3.05614315
  -3.03790356  6.54368450  2.79018183
   1.88896584  3.40247238  3.05005713
  -5.52753994  9.63291806  0.13508451
   5.57064487  9.62690569  5.88844262
   5.59709029  3.20591793  8.94083624
  -0.11412552  6.50014058  8.96277630
   5.60287340  3.27037368  2.98886763
  -0.17408399  6.55744444  0.35615486
 


--------------------------------------------------------------------------------------------------------


 k-point  1 :   0.0000 0.0000 0.0000  plane waves:   34767

 maximum and minimum number of plane-waves per node :     34767    34767

 maximum number of plane-waves:     34767
 maximum index in each direction: 
   IXMAX=   20   IYMAX=   20   IZMAX=   22
   IXMIN=  -20   IYMIN=  -20   IZMIN=  -22


 serial   3D FFT for wavefunctions
 parallel 3D FFT for charge:
    minimum data exchange during FFTs selected (reduces bandwidth)


 total amount of memory used by VASP MPI-rank0   130729. kBytes
=======================================================================

   base      :      30000. kBytes
   nonl-proj :      59020. kBytes
   fftplans  :       5664. kBytes
   grid      :      32836. kBytes
   one-center:        948. kBytes
   wavefun   :       2261. kBytes
 
     INWAV:  cpu time    0.0000: real time    0.0002
 Broyden mixing: mesh for mixing (old mesh)
   NGX = 41   NGY = 41   NGZ = 45
  (NGX  =168   NGY  =168   NGZ  =180)
  gives a total of  75645 points

 initial charge density was supplied:
 charge density of overlapping atoms calculated
 number of electron     337.0000000 magnetization 
 keeping initial charge density in first step


--------------------------------------------------------------------------------------------------------


 Maximum index for augmentation-charges         1024 (set IRDMAX)


--------------------------------------------------------------------------------------------------------


 First call to EWALD:  gamma=   0.163
 Maximum number of real-space cells 3x 3x 3
 Maximum number of reciprocal cells 3x 3x 3

    FEWALD:  cpu time    0.0024: real time    0.0024


--------------------------------------- Iteration      1(   1)  ---------------------------------------


    POTLOK:  cpu time    0.0789: real time    0.1469
    SETDIJ:  cpu time    0.0076: real time    0.0076
     EDDAV:  cpu time    1.4120: real time    2.0058
       DOS:  cpu time    0.0008: real time    0.0009
    --------------------------------------------
      LOOP:  cpu time    1.4993: real time    2.1613

 eigenvalue-minimisations  :   480
 total energy-change (2. order) : 0.2180102E+04  (-0.1497261E+05)
 number of electron     337.0000000 magnetization 
 augmentation part      337.0000000 magnetization 

 Free energy of the ion-electron system (eV)
  ---------------------------------------------------
  alpha Z        PSCENC =       611.32004817
  Ewald energy   TEWEN  =    -15715.26010918
  -Hartree energ DENC   =     -5098.40449620
  -exchange      EXHF   =         0.00000000
  -V(xc)+E(xc)   XCENC  =       918.98955927
  PAW double counting   =     11564.43052707   -11339.32546143
  entropy T*S    EENTRO =        -0.08994242
  eigenvalues    EBANDS =      -139.39419826
  atomic energy  EATOM  =     21377.83636145
  Solvation  Ediel_sol  =         0.00000000
  ---------------------------------------------------
  free energy    TOTEN  =      2180.10228846 eV

  energy without entropy =     2180.19223088  energy(sigma->0) =     2180.14725967


--------------------------------------------------------------------------------------------------------




--------------------------------------- Iteration      1(   2)  ---------------------------------------


     EDDAV:  cpu time    1.7738: real time    1.8051
       DOS:  cpu time    0.0003: real time    0.0003
    --------------------------------------------
      LOOP:  cpu time    1.7741: real time    1.8054

 eigenvalue-minimisations  :   660
 total energy-change (2. order) :-0.2263026E+04  (-0.2199226E+04)
 number of electron     337.0000000 magnetization 
 augmentation part      337.0000000 magnetization 

 Free energy of the ion-electron system (eV)
  ---------------------------------------------------
  alpha Z        PSCENC =       611.32004817
  Ewald energy   TEWEN  =    -15715.26010918
  -Hartree energ DENC   =     -5098.40449620
  -exchange      EXHF   =         0.00000000
  -V(xc)+E(xc)   XCENC  =       918.98955927
  PAW double counting   =     11564.43052707   -11339.32546143
  entropy T*S    EENTRO =        -0.05641896
  eigenvalues    EBANDS =     -2402.45329333
  atomic energy  EATOM  =     21377.83636145
  Solvation  Ediel_sol  =         0.00000000
  ---------------------------------------------------
  free energy    TOTEN  =       -82.92328314 eV

  energy without entropy =      -82.86686418  energy(sigma->0) =      -82.89507366


--------------------------------------------------------------------------------------------------------




--------------------------------------- Iteration      1(   3)  ---------------------------------------


     EDDAV:  cpu time    1.7728: real time    1.7764
       DOS:  cpu time    0.0003: real time    0.0003
    --------------------------------------------
      LOOP:  cpu time    1.7731: real time    1.7767

 eigenvalue-minimisations  :   660
 total energy-change (2. order) :-0.1835893E+03  (-0.1828854E+03)
 number of electron     337.0000000 magnetization 
 augmentation part      337.0000000 magnetization 

 Free energy of the ion-electron system (eV)
  ---------------------------------------------------
  alpha Z        PSCENC =       611.32004817
  Ewald energy   TEWEN  =    -15715.26010918
  -Hartree energ DENC   =     -5098.40449620
  -exchange      EXHF   =         0.00000000
  -V(xc)+E(xc)   XCENC  =       918.98955927
  PAW double counting   =     11564.43052707   -11339.32546143
  entropy T*S    EENTRO =        -0.05641896
  eigenvalues    EBANDS =     -2586.04262429
  atomic energy  EATOM  =     21377.83636145
  Solvation  Ediel_sol  =         0.00000000
  ---------------------------------------------------
  free energy    TOTEN  =      -266.51261410 eV

  energy without entropy =     -266.45619514  energy(sigma->0) =     -266.48440462


--------------------------------------------------------------------------------------------------------




--------------------------------------- Iteration      1(   4)  ---------------------------------------


     EDDAV:  cpu time    2.5186: real time    2.5226
       DOS:  cpu time    0.0003: real time    0.0003
    --------------------------------------------
      LOOP:  cpu time    2.5188: real time    2.5228

 eigenvalue-minimisations  :   960
 total energy-change (2. order) :-0.6822038E+01  (-0.6810055E+01)
 number of electron     337.0000000 magnetization 
 augmentation part      337.0000000 magnetization 

 Free energy of the ion-electron system (eV)
  ---------------------------------------------------
  alpha Z        PSCENC =       611.32004817
  Ewald energy   TEWEN  =    -15715.26010918
  -Hartree energ DENC   =     -5098.40449620
  -exchange      EXHF   =         0.00000000
  -V(xc)+E(xc)   XCENC  =       918.98955927
  PAW double counting   =     11564.43052707   -11339.32546143
  entropy T*S    EENTRO =        -0.05641980
  eigenvalues    EBANDS =     -2592.86466118
  atomic energy  EATOM  =     21377.83636145
  Solvation  Ediel_sol  =         0.00000000
  ---------------------------------------------------
  free energy    TOTEN  =      -273.33465183 eV

  energy without entropy =     -273.27823203  energy(sigma->0) =     -273.30644193


--------------------------------------------------------------------------------------------------------




--------------------------------------- Iteration      1(   5)  ---------------------------------------


     EDDAV:  cpu time    1.7718: real time    1.7757
       DOS:  cpu time    0.0003: real time    0.0003
    CHARGE:  cpu time    0.0745: real time    0.0745
    MIXING:  cpu time    0.0033: real time    0.0033
    --------------------------------------------
      LOOP:  cpu time    1.8499: real time    1.8538

 eigenvalue-minimisations  :   660
 total energy-change (2. order) :-0.4694579E-01  (-0.4694368E-01)
 number of electron     336.9999995 magnetization 
 augmentation part      -19.1510851 magnetization 

 Broyden mixing:
  rms(total) = 0.13940E+01    rms(broyden)= 0.13939E+01
  rms(prec ) = 0.20194E+01
  weight for this iteration     100.00

 Free energy of the ion-electron system (eV)
  ---------------------------------------------------
  alpha Z        PSCENC =       611.32004817
  Ewald energy   TEWEN  =    -15715.26010918
  -Hartree energ DENC   =     -5098.40449620
  -exchange      EXHF   =         0.00000000
  -V(xc)+E(xc)   XCENC  =       918.98955927
  PAW double counting   =     11564.43052707   -11339.32546143
  entropy T*S    EENTRO =        -0.05641996
  eigenvalues    EBANDS =     -2592.91160681
  atomic energy  EATOM  =     21377.83636145
  Solvation  Ediel_sol  =         0.00000000
  ---------------------------------------------------
  free energy    TOTEN  =      -273.38159762 eV

  energy without entropy =     -273.32517766  energy(sigma->0) =     -273.35338764


--------------------------------------------------------------------------------------------------------




--------------------------------------- Iteration      1(   6)  ---------------------------------------


    POTLOK:  cpu time    0.0628: real time    0.0660
    SETDIJ:  cpu time    0.0063: real time    0.0063
     EDDAV:  cpu time    1.6329: real time    1.6334
       DOS:  cpu time    0.0003: real time    0.0003
    CHARGE:  cpu time    0.0717: real time    0.0717
    MIXING:  cpu time    0.0028: real time    0.1316
    --------------------------------------------
      LOOP:  cpu time    1.7768: real time    1.9093

 eigenvalue-minimisations  :   600
 total energy-change (2. order) : 0.8818004E+01  (-0.8418241E+00)
 number of electron     336.9999994 magnetization 
 augmentation part      -18.8655961 magnetization 

 Broyden mixing:
  rms(total) = 0.85900E+00    rms(broyden)= 0.85898E+00
  rms(prec ) = 0.12149E+01
  weight for this iteration     100.00

 eigenvalues of (default mixing * dielectric matrix)
  average eigenvalue GAMMA=   1.9999
  1.9999

 Free energy of the ion-electron system (eV)
  ---------------------------------------------------
  alpha Z        PSCENC =       611.32004817
  Ewald energy   TEWEN  =    -15715.26010918
  -Hartree energ DENC   =     -5126.42830012
  -exchange      EXHF   =         0.00000000
  -V(xc)+E(xc)   XCENC  =       924.18712506
  PAW double counting   =     11746.11133633   -11529.60983444
  entropy T*S    EENTRO =        -0.05641896
  eigenvalues    EBANDS =     -2552.66380211
  atomic energy  EATOM  =     21377.83636145
  Solvation  Ediel_sol  =         0.00000000
  ---------------------------------------------------
  free energy    TOTEN  =      -264.56359380 eV

  energy without entropy =     -264.50717484  energy(sigma->0) =     -264.53538432


--------------------------------------------------------------------------------------------------------




--------------------------------------- Iteration      1(   7)  ---------------------------------------


    POTLOK:  cpu time    0.0638: real time    0.0669
    SETDIJ:  cpu time    0.0061: real time    0.0061
     EDDAV:  cpu time    1.6313: real time    1.6318
       DOS:  cpu time    0.0003: real time    0.0003
    CHARGE:  cpu time    0.0717: real time    0.0717
    MIXING:  cpu time    0.0018: real time    0.0018
    --------------------------------------------
      LOOP:  cpu time    1.7750: real time    1.7785

 eigenvalue-minimisations  :   600
 total energy-change (2. order) : 0.3218445E+01  (-0.1337381E+01)
 number of electron     336.9999994 magnetization 
 augmentation part      -18.5151651 magnetization 

 Broyden mixing:
  rms(total) = 0.45421E+00    rms(broyden)= 0.45413E+00
  rms(prec ) = 0.53928E+00
  weight for this iteration     100.00

 eigenvalues of (default mixing * dielectric matrix)
  average eigenvalue GAMMA=   2.3355
  2.3355  2.3355

 Free energy of the ion-electron system (eV)
  ---------------------------------------------------
  alpha Z        PSCENC =       611.32004817
  Ewald energy   TEWEN  =    -15715.26010918
  -Hartree energ DENC   =     -5167.62573412
  -exchange      EXHF   =         0.00000000
  -V(xc)+E(xc)   XCENC  =       931.08391131
  PAW double counting   =     12012.70596371   -11807.83728154
  entropy T*S    EENTRO =        -0.05641966
  eigenvalues    EBANDS =     -2503.51188928
  atomic energy  EATOM  =     21377.83636145
  Solvation  Ediel_sol  =         0.00000000
  ---------------------------------------------------
  free energy    TOTEN  =      -261.34514913 eV

  energy without entropy =     -261.28872948  energy(sigma->0) =     -261.31693930


--------------------------------------------------------------------------------------------------------




--------------------------------------- Iteration      1(   8)  ---------------------------------------


    POTLOK:  cpu time    0.0622: real time    0.0654
    SETDIJ:  cpu time    0.0062: real time    0.0062
     EDDAV:  cpu time    1.7716: real time    1.7720
       DOS:  cpu time    0.0003: real time    0.0003
    CHARGE:  cpu time    0.0717: real time    0.0717
    MIXING:  cpu time    0.0019: real time    0.0027
    --------------------------------------------
      LOOP:  cpu time    1.9139: real time    1.9182

 eigenvalue-minimisations  :   660
 total energy-change (2. order) :-0.3144379E+00  (-0.3245445E+00)
 number of electron     336.9999994 magnetization 
 augmentation part      -18.7892547 magnetization 

 Broyden mixing:
  rms(total) = 0.25902E+00    rms(broyden)= 0.25900E+00
  rms(prec ) = 0.34485E+00
  weight for this iteration     100.00

 eigenvalues of (default mixing * dielectric matrix)
  average eigenvalue GAMMA=   2.3948
  4.0695  1.5575  1.5575

 Free energy of the ion-electron system (eV)
  ---------------------------------------------------
  alpha Z        PSCENC =       611.32004817
  Ewald energy   TEWEN  =    -15715.26010918
  -Hartree energ DENC   =     -5174.34512006
  -exchange      EXHF   =         0.00000000
  -V(xc)+E(xc)   XCENC  =       931.53174452
  PAW double counting   =     12083.86529528   -11879.65683910
  entropy T*S    EENTRO =        -0.05641896
  eigenvalues    EBANDS =     -2496.89454912
  atomic energy  EATOM  =     21377.83636145
  Solvation  Ediel_sol  =         0.00000000
  ---------------------------------------------------
  free energy    TOTEN  =      -261.65958700 eV

  energy without entropy =     -261.60316804  energy(sigma->0) =     -261.63137752


--------------------------------------------------------------------------------------------------------




--------------------------------------- Iteration      1(   9)  ---------------------------------------


    POTLOK:  cpu time    0.0622: real time    0.0655
    SETDIJ:  cpu time    0.0061: real time    0.0061
     EDDAV:  cpu time    1.6340: real time    1.6344
       DOS:  cpu time    0.0003: real time    0.0003
    CHARGE:  cpu time    0.0718: real time    0.0718
    MIXING:  cpu time    0.0018: real time    0.0018
    --------------------------------------------
      LOOP:  cpu time    1.7762: real time    1.7799

 eigenvalue-minimisations  :   600
 total energy-change (2. order) : 0.4615800E-01  (-0.1063003E+00)
 number of electron     336.9999994 magnetization 
 augmentation part      -18.6904080 magnetization 

 Broyden mixing:
  rms(total) = 0.14371E+00    rms(broyden)= 0.14369E+00
  rms(prec ) = 0.17064E+00
  weight for this iteration     100.00

 eigenvalues of (default mixing * dielectric matrix)
  average eigenvalue GAMMA=   2.2614
  4.2424  1.0136  1.8948  1.8948

 Free energy of the ion-electron system (eV)
  ---------------------------------------------------
  alpha Z        PSCENC =       611.32004817
  Ewald energy   TEWEN  =    -15715.26010918
  -Hartree energ DENC   =     -5189.74977389
  -exchange      EXHF   =         0.00000000
  -V(xc)+E(xc)   XCENC  =       934.39072394
  PAW double counting   =     12204.42722818   -12003.15243686
  entropy T*S    EENTRO =        -0.05642091
  eigenvalues    EBANDS =     -2481.36904990
  atomic energy  EATOM  =     21377.83636145
  Solvation  Ediel_sol  =         0.00000000
  ---------------------------------------------------
  free energy    TOTEN  =      -261.61342900 eV

  energy without entropy =     -261.55700809  energy(sigma->0) =     -261.58521854


--------------------------------------------------------------------------------------------------------




--------------------------------------- Iteration      1(  10)  ---------------------------------------


    POTLOK:  cpu time    0.0630: real time    0.0662
    SETDIJ:  cpu time    0.0061: real time    0.0061
     EDDAV:  cpu time    1.7728: real time    1.7732
       DOS:  cpu time    0.0003: real time    0.0003
    CHARGE:  cpu time    0.0717: real time    0.0717
    MIXING:  cpu time    0.0020: real time    0.0021
    --------------------------------------------
      LOOP:  cpu time    1.9159: real time    1.9196

 eigenvalue-minimisations  :   660
 total energy-change (2. order) :-0.5094301E-02  (-0.1750311E-01)
 number of electron     336.9999994 magnetization 
 augmentation part      -18.8279624 magnetization 

 Broyden mixing:
  rms(total) = 0.84538E-01    rms(broyden)= 0.84536E-01
  rms(prec ) = 0.98165E-01
  weight for this iteration     100.00

 eigenvalues of (default mixing * dielectric matrix)
  average eigenvalue GAMMA=   2.2296
  4.2486  3.4290  1.3630  1.3630  0.7447

 Free energy of the ion-electron system (eV)
  ---------------------------------------------------
  alpha Z        PSCENC =       611.32004817
  Ewald energy   TEWEN  =    -15715.26010918
  -Hartree energ DENC   =     -5192.27765118
  -exchange      EXHF   =         0.00000000
  -V(xc)+E(xc)   XCENC  =       934.74819423
  PAW double counting   =     12229.97738363   -12027.52024698
  entropy T*S    EENTRO =        -0.05641956
  eigenvalues    EBANDS =     -2480.38608387
  atomic energy  EATOM  =     21377.83636145
  Solvation  Ediel_sol  =         0.00000000
  ---------------------------------------------------
  free energy    TOTEN  =      -261.61852330 eV

  energy without entropy =     -261.56210374  energy(sigma->0) =     -261.59031352


--------------------------------------------------------------------------------------------------------




--------------------------------------- Iteration      1(  11)  ---------------------------------------


    POTLOK:  cpu time    0.0658: real time    0.0661
    SETDIJ:  cpu time    0.0063: real time    0.0063
     EDDAV:  cpu time    1.7707: real time    1.7711
       DOS:  cpu time    0.0003: real time    0.0003
    CHARGE:  cpu time    0.0717: real time    0.0717
    MIXING:  cpu time    0.0020: real time    0.0020
    --------------------------------------------
      LOOP:  cpu time    1.9167: real time    1.9175

 eigenvalue-minimisations  :   660
 total energy-change (2. order) :-0.1710879E-02  (-0.5670759E-02)
 number of electron     336.9999994 magnetization 
 augmentation part      -18.8518345 magnetization 

 Broyden mixing:
  rms(total) = 0.31294E-01    rms(broyden)= 0.31292E-01
  rms(prec ) = 0.38179E-01
  weight for this iteration     100.00

 eigenvalues of (default mixing * dielectric matrix)
  average eigenvalue GAMMA=   2.1873
  4.9138  2.3497  2.3497  1.4967  1.0517  0.9624

 Free energy of the ion-electron system (eV)
  ---------------------------------------------------
  alpha Z        PSCENC =       611.32004817
  Ewald energy   TEWEN  =    -15715.26010918
  -Hartree energ DENC   =     -5193.87041869
  -exchange      EXHF   =         0.00000000
  -V(xc)+E(xc)   XCENC  =       934.86661085
  PAW double counting   =     12240.50928272   -12036.49333292
  entropy T*S    EENTRO =        -0.05641912
  eigenvalues    EBANDS =     -2480.47225746
  atomic energy  EATOM  =     21377.83636145
  Solvation  Ediel_sol  =         0.00000000
  ---------------------------------------------------
  free energy    TOTEN  =      -261.62023418 eV

  energy without entropy =     -261.56381506  energy(sigma->0) =     -261.59202462


--------------------------------------------------------------------------------------------------------




--------------------------------------- Iteration      1(  12)  ---------------------------------------


    POTLOK:  cpu time    0.0623: real time    0.0656
    SETDIJ:  cpu time    0.0061: real time    0.0061
     EDDAV:  cpu time    1.6312: real time    1.6317
       DOS:  cpu time    0.0003: real time    0.0003
    CHARGE:  cpu time    0.0716: real time    0.0716
    MIXING:  cpu time    0.0019: real time    0.0019
    --------------------------------------------
      LOOP:  cpu time    1.7734: real time    1.7772

 eigenvalue-minimisations  :   600
 total energy-change (2. order) :-0.3132311E-03  (-0.1594520E-02)
 number of electron     336.9999994 magnetization 
 augmentation part      -18.8213009 magnetization 

 Broyden mixing:
  rms(total) = 0.18400E-01    rms(broyden)= 0.18400E-01
  rms(prec ) = 0.21168E-01
  weight for this iteration     100.00

 eigenvalues of (default mixing * dielectric matrix)
  average eigenvalue GAMMA=   2.1748
  4.9565  3.2455  2.5324  1.3482  1.3482  0.8964  0.8964

 Free energy of the ion-electron system (eV)
  ---------------------------------------------------
  alpha Z        PSCENC =       611.32004817
  Ewald energy   TEWEN  =    -15715.26010918
  -Hartree energ DENC   =     -5196.81706436
  -exchange      EXHF   =         0.00000000
  -V(xc)+E(xc)   XCENC  =       935.18140842
  PAW double counting   =     12250.76544757   -12046.52598697
  entropy T*S    EENTRO =        -0.05641919
  eigenvalues    EBANDS =     -2478.06423331
  atomic energy  EATOM  =     21377.83636145
  Solvation  Ediel_sol  =         0.00000000
  ---------------------------------------------------
  free energy    TOTEN  =      -261.62054741 eV

  energy without entropy =     -261.56412822  energy(sigma->0) =     -261.59233782


--------------------------------------------------------------------------------------------------------




--------------------------------------- Iteration      1(  13)  ---------------------------------------


    POTLOK:  cpu time    0.0621: real time    0.0655
    SETDIJ:  cpu time    0.0063: real time    0.0063
     EDDAV:  cpu time    1.6338: real time    1.6343
       DOS:  cpu time    0.0003: real time    0.0003
    CHARGE:  cpu time    0.0717: real time    0.0717
    MIXING:  cpu time    0.0020: real time    0.0020
    --------------------------------------------
      LOOP:  cpu time    1.7762: real time    1.7801

 eigenvalue-minimisations  :   600
 total energy-change (2. order) :-0.2654428E-03  (-0.1726755E-03)
 number of electron     336.9999994 magnetization 
 augmentation part      -18.8201049 magnetization 

 Broyden mixing:
  rms(total) = 0.78461E-02    rms(broyden)= 0.78460E-02
  rms(prec ) = 0.96321E-02
  weight for this iteration     100.00

 eigenvalues of (default mixing * dielectric matrix)
  average eigenvalue GAMMA=   2.1107
  5.1423  2.8561  2.8561  1.4929  1.4929  0.9260  1.0596  1.0596

 Free energy of the ion-electron system (eV)
  ---------------------------------------------------
  alpha Z        PSCENC =       611.32004817
  Ewald energy   TEWEN  =    -15715.26010918
  -Hartree energ DENC   =     -5197.86295116
  -exchange      EXHF   =         0.00000000
  -V(xc)+E(xc)   XCENC  =       935.24293249
  PAW double counting   =     12252.26688579   -12047.44018754
  entropy T*S    EENTRO =        -0.05641915
  eigenvalues    EBANDS =     -2477.66737372
  atomic energy  EATOM  =     21377.83636145
  Solvation  Ediel_sol  =         0.00000000
  ---------------------------------------------------
  free energy    TOTEN  =      -261.62081286 eV

  energy without entropy =     -261.56439371  energy(sigma->0) =     -261.59260328


--------------------------------------------------------------------------------------------------------




--------------------------------------- Iteration      1(  14)  ---------------------------------------


    POTLOK:  cpu time    0.0630: real time    0.0669
    SETDIJ:  cpu time    0.0061: real time    0.0061
     EDDAV:  cpu time    2.0480: real time    2.0484
       DOS:  cpu time    0.0003: real time    0.0003
    CHARGE:  cpu time    0.0717: real time    0.0717
    MIXING:  cpu time    0.0021: real time    0.0021
    --------------------------------------------
      LOOP:  cpu time    2.1913: real time    2.1956

 eigenvalue-minimisations  :   780
 total energy-change (2. order) :-0.3883052E-04  (-0.2686213E-04)
 number of electron     336.9999994 magnetization 
 augmentation part      -18.8175022 magnetization 

 Broyden mixing:
  rms(total) = 0.43990E-02    rms(broyden)= 0.43990E-02
  rms(prec ) = 0.54196E-02
  weight for this iteration     100.00

 eigenvalues of (default mixing * dielectric matrix)
  average eigenvalue GAMMA=   2.1501
  5.0077  3.8536  2.7199  2.1313  1.6040  0.9937  0.9937  1.0234  1.0234

 Free energy of the ion-electron system (eV)
  ---------------------------------------------------
  alpha Z        PSCENC =       611.32004817
  Ewald energy   TEWEN  =    -15715.26010918
  -Hartree energ DENC   =     -5198.10068669
  -exchange      EXHF   =         0.00000000
  -V(xc)+E(xc)   XCENC  =       935.25979479
  PAW double counting   =     12252.80591458   -12047.84854839
  entropy T*S    EENTRO =        -0.05641914
  eigenvalues    EBANDS =     -2477.57720727
  atomic energy  EATOM  =     21377.83636145
  Solvation  Ediel_sol  =         0.00000000
  ---------------------------------------------------
  free energy    TOTEN  =      -261.62085169 eV

  energy without entropy =     -261.56443255  energy(sigma->0) =     -261.59264212


--------------------------------------------------------------------------------------------------------




--------------------------------------- Iteration      1(  15)  ---------------------------------------


    POTLOK:  cpu time    0.0673: real time    0.0676
    SETDIJ:  cpu time    0.0061: real time    0.0061
     EDDAV:  cpu time    1.7691: real time    1.7695
       DOS:  cpu time    0.0003: real time    0.0003
    CHARGE:  cpu time    0.0705: real time    0.0705
    MIXING:  cpu time    0.0022: real time    0.0022
    --------------------------------------------
      LOOP:  cpu time    1.9155: real time    1.9163

 eigenvalue-minimisations  :   660
 total energy-change (2. order) : 0.5375892E-05  (-0.1797021E-04)
 number of electron     336.9999994 magnetization 
 augmentation part      -18.8189412 magnetization 

 Broyden mixing:
  rms(total) = 0.14455E-02    rms(broyden)= 0.14455E-02
  rms(prec ) = 0.17037E-02
  weight for this iteration     100.00

 eigenvalues of (default mixing * dielectric matrix)
  average eigenvalue GAMMA=   2.1293
  5.2389  4.5479  2.3810  2.0138  1.5046  1.3388  1.3388  1.0111  0.9590  0.9590

 Free energy of the ion-electron system (eV)
  ---------------------------------------------------
  alpha Z        PSCENC =       611.32004817
  Ewald energy   TEWEN  =    -15715.26010918
  -Hartree energ DENC   =     -5198.18407801
  -exchange      EXHF   =         0.00000000
  -V(xc)+E(xc)   XCENC  =       935.24810027
  PAW double counting   =     12251.84702215   -12046.71233791
  entropy T*S    EENTRO =        -0.05641912
  eigenvalues    EBANDS =     -2477.65943412
  atomic energy  EATOM  =     21377.83636145
  Solvation  Ediel_sol  =         0.00000000
  ---------------------------------------------------
  free energy    TOTEN  =      -261.62084631 eV

  energy without entropy =     -261.56442719  energy(sigma->0) =     -261.59263675


--------------------------------------------------------------------------------------------------------




--------------------------------------- Iteration      1(  16)  ---------------------------------------


    POTLOK:  cpu time    0.0625: real time    0.0657
    SETDIJ:  cpu time    0.0061: real time    0.0061
     EDDAV:  cpu time    1.7722: real time    1.7727
       DOS:  cpu time    0.0003: real time    0.0003
    CHARGE:  cpu time    0.0719: real time    0.0719
    MIXING:  cpu time    0.0022: real time    0.0022
    --------------------------------------------
      LOOP:  cpu time    1.9153: real time    1.9189

 eigenvalue-minimisations  :   660
 total energy-change (2. order) :-0.2044773E-04  (-0.4181748E-05)
 number of electron     336.9999994 magnetization 
 augmentation part      -18.8176495 magnetization 

 Broyden mixing:
  rms(total) = 0.14095E-02    rms(broyden)= 0.14095E-02
  rms(prec ) = 0.16039E-02
  weight for this iteration     100.00

 eigenvalues of (default mixing * dielectric matrix)
  average eigenvalue GAMMA=   2.1506
  5.2498  4.3676  2.7396  2.7396  1.5166  1.5166  1.5471  0.9415  0.9415  1.0483
  1.0483

 Free energy of the ion-electron system (eV)
  ---------------------------------------------------
  alpha Z        PSCENC =       611.32004817
  Ewald energy   TEWEN  =    -15715.26010918
  -Hartree energ DENC   =     -5198.30755287
  -exchange      EXHF   =         0.00000000
  -V(xc)+E(xc)   XCENC  =       935.25765401
  PAW double counting   =     12251.89890896   -12046.67459396
  entropy T*S    EENTRO =        -0.05641912
  eigenvalues    EBANDS =     -2477.63516422
  atomic energy  EATOM  =     21377.83636145
  Solvation  Ediel_sol  =         0.00000000
  ---------------------------------------------------
  free energy    TOTEN  =      -261.62086676 eV

  energy without entropy =     -261.56444764  energy(sigma->0) =     -261.59265720


--------------------------------------------------------------------------------------------------------




--------------------------------------- Iteration      1(  17)  ---------------------------------------


    POTLOK:  cpu time    0.0624: real time    0.0655
    SETDIJ:  cpu time    0.0061: real time    0.0061
     EDDAV:  cpu time    1.6349: real time    1.6353
       DOS:  cpu time    0.0003: real time    0.0003
    --------------------------------------------
      LOOP:  cpu time    1.7037: real time    1.7072

 eigenvalue-minimisations  :   600
 total energy-change (2. order) : 0.3568279E-05  (-0.1024344E-05)
 number of electron     336.9999994 magnetization 
 augmentation part      -18.8176495 magnetization 

 Free energy of the ion-electron system (eV)
  ---------------------------------------------------
  alpha Z        PSCENC =       611.32004817
  Ewald energy   TEWEN  =    -15715.26010918
  -Hartree energ DENC   =     -5198.20438701
  -exchange      EXHF   =         0.00000000
  -V(xc)+E(xc)   XCENC  =       935.25242736
  PAW double counting   =     12251.57698765   -12046.37834303
  entropy T*S    EENTRO =        -0.05641912
  eigenvalues    EBANDS =     -2477.70742946
  atomic energy  EATOM  =     21377.83636145
  Solvation  Ediel_sol  =         0.00000000
  ---------------------------------------------------
  free energy    TOTEN  =      -261.62086319 eV

  energy without entropy =     -261.56444407  energy(sigma->0) =     -261.59265363


--------------------------------------------------------------------------------------------------------




 average (electrostatic) potential at core
  the test charge radii are     0.9406  0.7167  0.9406  0.9748  1.1987
  (the norm of the test charge is              1.0000)
       1 -93.5294       2 -93.6001       3 -93.5785       4 -93.4132       5 -93.6369
       6 -93.4369       7 -93.1096       8 -93.4021       9 -93.0937      10 -93.1867
      11 -93.2010      12 -93.2017      13 -77.8190      14 -93.3234      15 -93.2621
      16 -93.2192      17 -93.4377      18 -93.2107      19 -93.2570      20 -93.5652
      21 -93.3318      22 -93.4788      23 -93.3679      24 -93.3077      25 -92.5692
      26 -92.5876      27 -92.5636      28 -93.5085      29 -93.3536      30 -93.3168
      31 -93.6418      32 -93.6886      33 -93.6384      34 -93.4583      35 -93.4047
      36 -93.4139      37 -27.9943      38 -27.9854      39 -28.1388      40 -27.8491
      41 -27.9596      42 -27.8884      43 -28.0743      44 -28.0058      45 -28.0482
      46 -28.0223      47 -27.9949      48 -28.0239      49 -28.1587      50 -28.1305
      51 -28.2053      52 -27.9608      53 -27.7898      54 -27.8412      55 -27.8584
      56 -40.1554      57 -40.5608      58 -40.3145      59 -39.5860      60 -40.4113
      61 -39.7004
 
 
 
 E-fermi :   4.3745     XC(G=0):  -8.3384     alpha+bet : -8.7213


 k-point     1 :       0.0000    0.0000    0.0000
  band No.  band energies     occupation 
      1     -41.0193      2.00000
      2     -40.8710      2.00000
      3     -40.7778      2.00000
      4     -40.6200      2.00000
      5     -40.1979      2.00000
      6     -40.0899      2.00000
      7     -21.7722      2.00000
      8     -21.1448      2.00000
      9     -21.1301      2.00000
     10     -21.1255      2.00000
     11     -21.0002      2.00000
     12     -20.9833      2.00000
     13     -20.9767      2.00000
     14     -20.9081      2.00000
     15     -20.9044      2.00000
     16     -20.8888      2.00000
     17     -20.7562      2.00000
     18     -20.7418      2.00000
     19     -20.7342      2.00000
     20     -20.4119      2.00000
     21     -20.3683      2.00000
     22     -20.3312      2.00000
     23     -20.3000      2.00000
     24     -20.1025      2.00000
     25     -19.7908      2.00000
     26     -13.5210      2.00000
     27     -13.3259      2.00000
     28     -13.2630      2.00000
     29     -13.2042      2.00000
     30     -13.1878      2.00000
     31     -13.1793      2.00000
     32     -13.1540      2.00000
     33     -13.1370      2.00000
     34     -13.1157      2.00000
     35     -13.1067      2.00000
     36     -13.0741      2.00000
     37     -13.0511      2.00000
     38     -12.9975      2.00000
     39     -12.9864      2.00000
     40     -12.9711      2.00000
     41     -12.9551      2.00000
     42     -12.9231      2.00000
     43     -12.9065      2.00000
     44     -12.8939      2.00000
     45     -12.8661      2.00000
     46     -12.8554      2.00000
     47     -12.8473      2.00000
     48     -12.8106      2.00000
     49     -12.7853      2.00000
     50     -12.7789      2.00000
     51     -12.7644      2.00000
     52     -12.7351      2.00000
     53     -12.7014      2.00000
     54     -12.6706      2.00000
     55     -12.6460      2.00000
     56     -12.5662      2.00000
     57     -12.5636      2.00000
     58     -12.1993      2.00000
     59     -12.1737      2.00000
     60     -12.1505      2.00000
     61      -3.4723      2.00000
     62      -3.2017      2.00000
     63      -2.9594      2.00000
     64      -2.7645      2.00000
     65      -2.7572      2.00000
     66      -2.7090      2.00000
     67      -2.6611      2.00000
     68      -2.6395      2.00000
     69      -2.6307      2.00000
     70      -2.5609      2.00000
     71      -2.5500      2.00000
     72      -2.5343      2.00000
     73      -2.5095      2.00000
     74      -2.4825      2.00000
     75      -2.4767      2.00000
     76      -2.4483      2.00000
     77      -2.4184      2.00000
     78      -2.4148      2.00000
     79      -2.3809      2.00000
     80      -2.3571      2.00000
     81      -2.3315      2.00000
     82      -2.3014      2.00000
     83      -2.2942      2.00000
     84      -2.2685      2.00000
     85      -2.2265      2.00000
     86      -2.1809      2.00000
     87      -2.1755      2.00000
     88      -2.1421      2.00000
     89      -2.1205      2.00000
     90      -2.1124      2.00000
     91      -2.0756      2.00000
     92      -2.0658      2.00000
     93      -2.0271      2.00000
     94      -1.9790      2.00000
     95      -1.9637      2.00000
     96      -1.9566      2.00000
     97      -1.9180      2.00000
     98      -1.8820      2.00000
     99      -1.8541      2.00000
    100      -1.8091      2.00000
    101      -1.7913      2.00000
    102      -1.7201      2.00000
    103      -1.6975      2.00000
    104      -1.6585      2.00000
    105      -1.6261      2.00000
    106      -1.5970      2.00000
    107      -1.5389      2.00000
    108      -1.5294      2.00000
    109      -1.5008      2.00000
    110      -1.4642      2.00000
    111      -1.4371      2.00000
    112      -1.4261      2.00000
    113      -1.3985      2.00000
    114      -1.3718      2.00000
    115      -1.3696      2.00000
    116      -1.3117      2.00000
    117      -1.2829      2.00000
    118      -1.2614      2.00000
    119      -1.2123      2.00000
    120      -1.1858      2.00000
    121      -1.1510      2.00000
    122      -1.1187      2.00000
    123      -1.1036      2.00000
    124      -1.0745      2.00000
    125      -1.0584      2.00000
    126      -1.0175      2.00000
    127      -0.9739      2.00000
    128      -0.9590      2.00000
    129      -0.9327      2.00000
    130      -0.9093      2.00000
    131      -0.8869      2.00000
    132      -0.8744      2.00000
    133      -0.8383      2.00000
    134      -0.8318      2.00000
    135      -0.8163      2.00000
    136      -0.7933      2.00000
    137      -0.7643      2.00000
    138      -0.7471      2.00000
    139      -0.7322      2.00000
    140      -0.7048      2.00000
    141      -0.6815      2.00000
    142      -0.6604      2.00000
    143      -0.6229      2.00000
    144      -0.6102      2.00000
    145      -0.5810      2.00000
    146      -0.5621      2.00000
    147      -0.5471      2.00000
    148      -0.5327      2.00000
    149      -0.5216      2.00000
    150      -0.5018      2.00000
    151      -0.4475      2.00000
    152      -0.4409      2.00000
    153      -0.4139      2.00000
    154      -0.3738      2.00000
    155      -0.3637      2.00000
    156      -0.3329      2.00000
    157      -0.3204      2.00000
    158      -0.3077      2.00000
    159      -0.2731      2.00000
    160      -0.2634      2.00000
    161      -0.2242      2.00000
    162      -0.2169      2.00000
    163      -0.1645      2.00000
    164      -0.1525      2.00000
    165      -0.1300      2.00000
    166      -0.0690      2.00000
    167       0.2706      2.00000
    168       0.3013      2.00000
    169       4.3745      1.00000
    170       4.7327      0.00000
    171       4.7659      0.00000
    172       4.7886      0.00000
    173       4.8891      0.00000
    174       4.9014      0.00000
    175       4.9353      0.00000
    176       5.0006      0.00000
    177       5.0051      0.00000
    178       5.0697      0.00000
    179       5.1079      0.00000
    180       5.1187      0.00000
    181       5.2444      0.00000
    182       5.2736      0.00000
    183       5.3103      0.00000
    184       5.4189      0.00000
    185       5.5200      0.00000
    186       5.9630      0.00000
    187       6.3345      0.00000
    188       6.6579      0.00000
    189       6.7056      0.00000
    190       6.7180      0.00000
    191       6.7723      0.00000
    192       6.8606      0.00000
    193       6.8745      0.00000
    194       6.9370      0.00000
    195       6.9724      0.00000
    196       7.0267      0.00000
    197       7.0798      0.00000
    198       7.0989      0.00000
    199       7.1300      0.00000
    200       7.1667      0.00000
    201       7.1947      0.00000
    202       7.4105      0.00000
    203       7.6615      0.00000
    204       7.7494      0.00000
    205       7.7688      0.00000
    206       7.8053      0.00000
    207       7.8741      0.00000
    208       7.9402      0.00000
    209       7.9733      0.00000
    210       8.0215      0.00000
    211       8.0669      0.00000
    212       8.0976      0.00000
    213       8.1632      0.00000
    214       8.2010      0.00000
    215       8.2481      0.00000
    216       8.2961      0.00000
    217       8.3723      0.00000
    218       8.4531      0.00000
    219       8.4733      0.00000
    220       8.5181      0.00000
    221       8.6078      0.00000
    222       8.6996      0.00000
    223       8.7758      0.00000
    224       8.7860      0.00000
    225       8.9304      0.00000
    226       8.9358      0.00000
    227       8.9611      0.00000
    228       9.0263      0.00000
    229       9.1596      0.00000
    230       9.1926      0.00000
    231       9.2224      0.00000
    232       9.3709      0.00000
    233       9.3802      0.00000
    234       9.4853      0.00000
    235       9.5395      0.00000
    236       9.5943      0.00000
    237       9.6186      0.00000
    238       9.6833      0.00000
    239       9.7100      0.00000
    240       9.7610      0.00000


--------------------------------------------------------------------------------------------------------


 soft charge-density along one line, spin component           1
         0         1         2         3         4         5         6         7         8         9
 total charge-density along one line
 
 pseudopotential strength for first ion, spin component:           1
 47.719  -0.017   0.002   0.007  -0.004   0.000   0.000  -0.000
 -0.017   0.019   0.000   0.000  -0.000   0.000   0.000  -0.000
  0.002   0.000   9.141   0.001  -0.001  -0.000  -0.000   0.000
  0.007   0.000   0.001   9.142  -0.002  -0.000  -0.000   0.000
 -0.004  -0.000  -0.001  -0.002   9.143   0.000   0.000  -0.000
  0.000   0.000  -0.000  -0.000   0.000   0.035   0.000  -0.000
  0.000   0.000  -0.000  -0.000   0.000   0.000   0.035  -0.000
 -0.000  -0.000   0.000   0.000  -0.000  -0.000  -0.000   0.035
 total augmentation occupancy for first ion, spin component:           1
  1.918   0.392  -0.011  -0.031   0.020  -0.014  -0.035   0.024
  0.392   0.323   0.062   0.174  -0.113  -0.024  -0.076   0.043
 -0.011   0.062   1.771  -0.022   0.012  -0.352  -0.041   0.026
 -0.031   0.174  -0.022   1.764   0.036  -0.041  -0.362   0.060
  0.020  -0.113   0.012   0.036   1.759   0.026   0.060  -0.385
 -0.014  -0.024  -0.352  -0.041   0.026   0.102   0.022  -0.016
 -0.035  -0.076  -0.041  -0.362   0.060   0.022   0.109  -0.034
  0.024   0.043   0.026   0.060  -0.385  -0.016  -0.034   0.123


------------------------ aborting loop because EDIFF is reached ----------------------------------------


 


 total charge     
 
# of ion       s       p       d       tot
------------------------------------------
    1        1.592   3.579   0.000   5.171
    2        1.593   3.584   0.000   5.176
    3        1.593   3.583   0.000   5.176
    4        1.593   3.579   0.000   5.172
    5        1.592   3.585   0.000   5.178
    6        1.594   3.581   0.000   5.175
    7        1.592   3.590   0.000   5.182
    8        1.590   3.597   0.000   5.187
    9        1.592   3.595   0.000   5.186
   10        1.592   3.583   0.000   5.175
   11        1.593   3.578   0.000   5.171
   12        1.594   3.576   0.000   5.170
   13        1.731   4.376   0.000   6.107
   14        1.591   3.596   0.000   5.186
   15        1.591   3.590   0.000   5.182
   16        1.593   3.589   0.000   5.182
   17        1.593   3.587   0.000   5.179
   18        1.592   3.597   0.000   5.188
   19        1.592   3.585   0.000   5.177
   20        1.591   3.584   0.000   5.175
   21        1.590   3.591   0.000   5.181
   22        1.594   3.583   0.000   5.177
   23        1.593   3.583   0.000   5.176
   24        1.594   3.579   0.000   5.173
   25        1.589   3.596   0.000   5.185
   26        1.588   3.595   0.000   5.183
   27        1.588   3.592   0.000   5.180
   28        1.591   3.593   0.000   5.184
   29        1.592   3.587   0.000   5.179
   30        1.591   3.590   0.000   5.181
   31        1.594   3.568   0.000   5.162
   32        1.594   3.566   0.000   5.160
   33        1.594   3.568   0.000   5.162
   34        1.593   3.586   0.000   5.179
   35        1.593   3.582   0.000   5.175
   36        1.593   3.584   0.000   5.176
   37        0.059   0.112   0.000   0.171
   38        0.065   0.123   0.000   0.188
   39        0.061   0.115   0.000   0.175
   40        0.064   0.121   0.000   0.185
   41        0.062   0.118   0.000   0.181
   42        0.064   0.121   0.000   0.184
   43        0.058   0.106   0.000   0.164
   44        0.057   0.105   0.000   0.162
   45        0.064   0.122   0.000   0.186
   46        0.060   0.113   0.000   0.172
   47        0.059   0.110   0.000   0.169
   48        0.058   0.107   0.000   0.165
   49        0.065   0.124   0.000   0.189
   50        0.059   0.110   0.000   0.169
   51        0.059   0.107   0.000   0.166
   52        0.066   0.122   0.000   0.188
   53        0.066   0.127   0.000   0.193
   54        0.065   0.125   0.000   0.190
   55        0.067   0.129   0.000   0.196
   56        2.123   6.134   0.700   8.957
   57        2.122   6.129   0.689   8.940
   58        2.122   6.132   0.699   8.953
   59        2.106   6.090   0.841   9.037
   60        2.122   6.130   0.691   8.942
   61        2.104   6.090   0.811   9.005
--------------------------------------------------
tot         71.328 168.775   4.431 244.534
 
    CHARGE:  cpu time    0.0702: real time    0.0703
    FORLOC:  cpu time    0.0225: real time    0.0225
    FORNL :  cpu time    0.4540: real time    0.4540
    STRESS:  cpu time    1.4620: real time    1.4621
    FORCOR:  cpu time    0.0752: real time    0.0752
    FORHAR:  cpu time    0.0338: real time    0.0338
    MIXING:  cpu time    0.0024: real time    0.0024
    OFIELD:  cpu time    0.0000: real time    0.0000

  FORCE on cell =-STRESS in cart. coord.  units (eV):
  Direction    XX          YY          ZZ          XY          YZ          ZX
  --------------------------------------------------------------------------------------
  Alpha Z   611.32005   611.32005   611.32005
  Ewald   -5107.50043 -5143.18032 -5464.65571   -69.90867    74.41455   -78.29508
  Hartree  1803.84941  1782.84018  1611.53675   -41.97681    51.82161   -58.04842
  E(xc)   -1264.67876 -1264.68715 -1264.96291    -0.10712     0.04272     0.02425
  Local   -3115.31054 -3061.58237 -2579.15501   110.03569  -127.11581   136.57911
  n-local  2567.52595  2567.17568  2562.16201    -0.01083    -0.41925     0.08288
  augment  -581.15352  -581.21133  -580.13539    -0.18015    -0.16551     0.51491
  Kinetic  5094.47570  5098.47794  5112.25682     2.62153     1.12410     0.44652
  Fock        0.00000     0.00000     0.00000     0.00000     0.00000     0.00000
  -------------------------------------------------------------------------------------
  Total       8.52786     9.15268     8.36660     0.47364    -0.29759     1.30417
  in kB      10.57200    11.34658    10.37208     0.58717    -0.36892     1.61677
  external pressure =       10.76 kB  Pullay stress =        0.00 kB


 VOLUME and BASIS-vectors are now :
 -----------------------------------------------------------------------------
  energy-cutoff  :      520.00
  volume of cell :     1292.39
      direct lattice vectors                 reciprocal lattice vectors
    11.158300400  0.000000000  0.000000000     0.089619383  0.051741775  0.000000000
    -5.579150200  9.663371609  0.000000000     0.000000000  0.103483550  0.000000000
     0.000000000  0.000000000 11.985799789     0.000000000  0.000000000  0.083432063

  length of vectors
    11.158300400 11.158300400 11.985799789     0.103483550  0.103483550  0.083432063


 FORCES acting on ions
    electron-ion (+dipol)            ewald-force                    non-local-force                 convergence-correction
 -----------------------------------------------------------------------------------------------
   -.685E+02 0.394E+02 0.439E+02   0.686E+02 -.394E+02 -.443E+02   -.176E+00 0.661E-01 0.374E+00   0.710E-03 -.657E-03 0.803E-03
   0.230E+01 -.832E+02 0.484E+02   -.239E+01 0.835E+02 -.490E+02   0.913E-01 -.302E+00 0.545E+00   -.322E-03 0.109E-02 -.145E-03
   0.758E+02 0.431E+02 0.491E+02   -.761E+02 -.433E+02 -.495E+02   0.280E+00 0.178E+00 0.433E+00   -.986E-03 -.479E-03 -.328E-04
   0.709E+02 -.240E+02 -.608E+02   -.715E+02 0.238E+02 0.614E+02   0.614E+00 0.194E+00 -.580E+00   0.323E-05 -.107E-03 0.158E-02
   -.483E+02 -.246E+02 -.470E+02   0.487E+02 0.247E+02 0.472E+02   -.373E+00 -.329E-01 -.281E+00   -.182E-03 -.388E-03 0.161E-02
   -.734E+01 0.723E+02 -.627E+02   0.794E+01 -.727E+02 0.633E+02   -.608E+00 0.417E+00 -.601E+00   0.684E-04 0.160E-03 0.150E-02
   -.342E+02 0.311E+02 0.747E+02   0.344E+02 -.315E+02 -.752E+02   -.174E+00 0.418E+00 0.455E+00   0.147E-03 0.274E-03 -.157E-02
   0.163E+02 -.403E+02 0.560E+02   -.165E+02 0.406E+02 -.562E+02   0.255E+00 -.353E+00 0.139E+00   -.339E-03 -.194E-03 -.856E-03
   0.550E+02 0.279E+02 0.751E+02   -.554E+02 -.277E+02 -.756E+02   0.435E+00 -.185E+00 0.505E+00   -.124E-03 0.161E-03 -.113E-02
   0.513E+02 -.399E+02 -.508E+02   -.515E+02 0.402E+02 0.511E+02   0.176E+00 -.331E+00 -.341E+00   0.589E-04 0.173E-03 -.851E-03
   -.625E+02 -.254E+02 -.562E+02   0.630E+02 0.253E+02 0.567E+02   -.523E+00 0.162E+00 -.520E+00   -.937E-04 0.546E-03 -.110E-02
   0.184E+02 0.686E+02 -.557E+02   -.186E+02 -.690E+02 0.563E+02   0.252E+00 0.439E+00 -.576E+00   -.959E-03 -.265E-03 -.617E-03
   0.937E+02 -.609E+02 -.114E+03   -.987E+02 0.634E+02 0.115E+03   0.505E+01 -.251E+01 -.948E+00   0.229E-02 -.133E-02 -.246E-02
   -.159E+01 0.731E+02 -.756E+02   0.140E+01 -.737E+02 0.756E+02   0.202E+00 0.521E+00 -.611E-01   -.156E-03 0.801E-03 -.307E-04
   -.832E+02 -.206E+02 -.688E+02   0.839E+02 0.208E+02 0.686E+02   -.683E+00 -.149E+00 0.111E+00   -.453E-03 -.580E-03 0.190E-04
   -.653E+02 0.362E+02 -.550E+02   0.655E+02 -.360E+02 0.556E+02   -.222E+00 -.177E+00 -.650E+00   0.946E-03 -.594E-03 -.339E-04
   0.445E+02 0.368E+02 -.601E+02   -.444E+02 -.374E+02 0.610E+02   -.588E-01 0.566E+00 -.911E+00   -.643E-03 -.572E-03 0.390E-03
   0.646E+01 -.796E+02 -.529E+02   -.702E+01 0.797E+02 0.535E+02   0.565E+00 -.152E+00 -.579E+00   -.516E-03 0.884E-03 -.694E-04
   0.532E+02 -.155E+02 0.786E+02   -.537E+02 0.155E+02 -.788E+02   0.556E+00 -.292E-01 0.288E+00   -.151E-03 0.656E-04 0.242E-03
   0.592E+01 0.483E+02 0.794E+02   -.606E+01 -.485E+02 -.800E+02   0.129E+00 0.299E+00 0.598E+00   -.296E-03 -.264E-03 0.465E-03
   -.497E+02 -.373E+02 0.705E+02   0.500E+02 0.376E+02 -.708E+02   -.304E+00 -.257E+00 0.244E+00   0.374E-04 0.399E-03 0.195E-03
   -.554E+02 0.356E+02 -.654E+02   0.556E+02 -.359E+02 0.660E+02   -.193E+00 0.293E+00 -.577E+00   0.274E-03 -.227E-03 -.533E-04
   0.525E+02 0.384E+02 -.570E+02   -.526E+02 -.389E+02 0.573E+02   0.143E+00 0.423E+00 -.356E+00   -.107E-04 -.206E-04 0.746E-05
   -.251E+01 -.689E+02 -.620E+02   0.276E+01 0.693E+02 0.623E+02   -.256E+00 -.436E+00 -.300E+00   -.676E-04 0.290E-03 -.156E-04
   0.446E+02 -.307E+02 -.158E+02   -.460E+02 0.315E+02 0.157E+02   0.139E+01 -.908E+00 0.651E-01   -.154E-02 0.106E-02 -.182E-03
   -.573E+01 0.443E+02 -.287E+02   0.572E+01 -.457E+02 0.288E+02   0.976E-02 0.135E+01 -.490E-01   0.357E-03 -.171E-02 0.451E-03
   -.404E+02 -.205E+02 -.291E+02   0.416E+02 0.211E+02 0.291E+02   -.123E+01 -.565E+00 -.887E-01   0.159E-02 0.631E-03 0.289E-03
   0.483E+02 -.396E+02 0.654E+02   -.484E+02 0.399E+02 -.656E+02   0.130E+00 -.388E+00 0.185E+00   -.393E-03 0.462E-03 0.101E-02
   -.553E+02 -.427E+02 0.627E+02   0.555E+02 0.431E+02 -.626E+02   -.237E+00 -.421E+00 -.554E-01   0.618E-03 0.379E-03 0.988E-03
   -.179E+02 0.701E+02 0.657E+02   0.180E+02 -.705E+02 -.657E+02   -.107E+00 0.392E+00 -.350E-01   0.205E-03 -.875E-03 0.930E-03
   -.137E+03 0.607E+02 -.363E+01   0.139E+03 -.609E+02 0.384E+01   -.158E+01 0.164E+00 -.241E+00   0.155E-02 -.885E-03 0.224E-03
   -.122E+02 -.154E+03 0.137E+02   0.123E+02 0.156E+03 -.137E+02   -.916E-01 -.176E+01 0.239E-01   0.633E-04 0.160E-02 -.103E-03
   0.133E+03 0.876E+02 0.152E+02   -.135E+03 -.888E+02 -.152E+02   0.121E+01 0.118E+01 0.413E-01   -.117E-02 -.872E-03 -.262E-04
   0.490E+02 -.448E+02 0.585E+02   -.488E+02 0.454E+02 -.594E+02   -.144E+00 -.588E+00 0.965E+00   -.427E-03 0.478E-03 -.114E-02
   -.470E+02 -.161E+02 0.517E+02   0.474E+02 0.158E+02 -.526E+02   -.354E+00 0.286E+00 0.874E+00   0.457E-03 -.230E-03 -.996E-03
   0.662E+01 0.496E+02 0.532E+02   -.699E+01 -.497E+02 -.542E+02   0.382E+00 0.993E-01 0.951E+00   0.188E-03 -.199E-03 -.119E-02
   0.239E+01 -.268E+01 0.500E+00   -.201E+01 0.285E+01 -.722E+00   -.376E+00 -.167E+00 0.220E+00   0.305E-04 0.202E-05 -.981E-04
   0.134E+01 0.402E+01 -.229E+00   -.187E+01 -.391E+01 -.164E+00   0.538E+00 -.977E-01 0.399E+00   -.273E-04 -.362E-05 -.124E-03
   -.469E+01 -.107E+01 -.233E+00   0.463E+01 0.804E+00 0.393E+00   0.557E-01 0.272E+00 -.171E+00   -.809E-05 0.442E-05 -.104E-03
   -.118E+01 0.123E+01 0.686E+00   0.178E+01 -.150E+01 -.988E+00   -.589E+00 0.258E+00 0.303E+00   0.335E-04 -.593E-04 0.106E-03
   -.121E+01 -.275E+01 0.122E-01   0.998E+00 0.315E+01 -.235E+00   0.210E+00 -.398E+00 0.225E+00   0.276E-04 0.192E-04 0.742E-04
   0.183E+01 -.310E+00 -.960E-01   -.225E+01 -.975E-03 -.190E+00   0.419E+00 0.310E+00 0.281E+00   -.418E-04 0.335E-04 0.656E-04
   0.499E+00 0.423E+00 0.143E+01   -.949E+00 -.692E+00 -.132E+01   0.449E+00 0.269E+00 -.955E-01   -.786E-06 -.434E-04 0.827E-04
   -.158E+01 0.447E+00 -.421E+00   0.200E+01 -.783E+00 0.253E+00   -.409E+00 0.338E+00 0.189E+00   0.384E-04 0.204E-04 0.990E-04
   0.257E+01 -.211E+01 0.479E-01   -.233E+01 0.269E+01 -.427E+00   -.236E+00 -.580E+00 0.376E+00   -.371E-04 0.466E-04 0.623E-04
   0.407E+01 -.116E+02 -.961E+01   -.353E+01 0.110E+02 0.937E+01   -.537E+00 0.624E+00 0.246E+00   0.946E-04 0.306E-05 -.393E-04
   -.346E+01 0.135E+01 -.320E+01   0.347E+01 -.102E+01 0.301E+01   -.217E-01 -.313E+00 0.202E+00   0.163E-04 0.412E-04 -.695E-04
   -.169E+00 -.478E+01 -.675E+00   -.326E+00 0.449E+01 0.709E+00   0.498E+00 0.292E+00 -.376E-01   -.763E-04 -.207E-04 -.648E-04
   0.102E+01 0.666E+00 0.209E+01   -.105E+01 -.944E+00 -.204E+01   0.326E-01 0.267E+00 -.461E-01   -.198E-04 -.584E-04 0.988E-04
   0.199E+01 -.216E+01 0.229E+01   -.230E+01 0.198E+01 -.208E+01   0.325E+00 0.189E+00 -.217E+00   -.441E-04 0.713E-05 0.561E-04
   0.160E+00 0.152E+01 0.195E+01   -.220E+00 -.194E+01 -.168E+01   0.495E-01 0.419E+00 -.279E+00   0.159E-04 -.639E-04 0.674E-04
   -.786E+00 0.816E-01 0.126E+01   0.102E+01 0.357E+00 -.104E+01   -.227E+00 -.454E+00 -.210E+00   0.451E-04 0.435E-04 0.638E-04
   -.346E+01 0.264E+01 -.342E+01   0.301E+01 -.291E+01 0.353E+01   0.474E+00 0.276E+00 -.111E+00   -.228E-04 -.450E-04 -.500E-04
   0.971E+01 0.209E+01 -.117E+02   -.893E+01 -.227E+01 0.116E+02   -.810E+00 0.170E+00 0.105E+00   0.467E-04 -.851E-04 -.127E-04
   0.423E+01 0.112E+01 -.254E+01   -.418E+01 -.571E+00 0.265E+01   -.422E-01 -.550E+00 -.113E+00   -.203E-04 0.968E-04 -.688E-04
   0.116E+02 0.112E+01 -.105E+02   -.114E+02 -.172E+01 0.102E+02   -.198E+00 0.616E+00 0.360E+00   -.740E-03 0.655E-03 -.155E-02
   0.107E+01 0.549E+01 0.810E+01   -.153E+01 -.560E+01 -.748E+01   0.451E+00 0.122E+00 -.619E+00   -.151E-03 -.378E-03 0.257E-02
   -.186E+02 -.373E+01 0.187E+02   0.189E+02 0.372E+01 -.180E+02   -.300E+00 0.227E-01 -.655E+00   0.188E-03 -.685E-04 0.102E-02
   0.160E+01 -.691E+01 0.148E+03   -.156E+01 0.712E+01 -.148E+03   -.246E-01 -.208E+00 -.224E+00   -.312E-03 0.304E-03 -.207E-02
   -.401E+01 0.192E+01 -.785E+01   0.385E+01 -.166E+01 0.802E+01   0.162E+00 -.277E+00 -.136E+00   0.138E-03 0.283E-04 -.104E-02
   -.432E+02 0.206E+02 -.747E+02   0.433E+02 -.205E+02 0.750E+02   -.568E-01 -.679E-01 -.320E+00   0.705E-03 -.409E-03 0.250E-02
 -----------------------------------------------------------------------------------------------
   -.440E+01 0.761E+00 0.128E+01   -.128E-12 -.782E-13 -.171E-12   0.440E+01 -.760E+00 -.128E+01   0.620E-03 -.931E-03 -.340E-03
 
 
 POSITION                                       TOTAL-FORCE (eV/Angst)
 -----------------------------------------------------------------------------------
     -3.58064      8.54560      4.49470        -0.003301      0.002040      0.022749
      0.03106      2.27129      4.54093         0.003646     -0.011682      0.035730
      3.60126      8.52118      4.51770        -0.000237      0.002487      0.029654
      9.24013      1.11286      7.30925         0.011527     -0.006162     -0.041220
      1.88756      1.10435      7.37255        -0.006153      0.007447     -0.022544
      5.54168      7.42127      7.31434        -0.006692     -0.003847     -0.036992
     -3.75907      8.44429     10.58978        -0.001694     -0.003291      0.006268
      0.14534      2.16167     10.54872         0.005523      0.003194      0.019804
      3.68514      8.80182     10.55876         0.006659      0.015569      0.020483
      9.24693      1.07919      1.53819         0.006329     -0.011033     -0.022219
      1.96266      1.15818      1.52810        -0.008088     -0.002682     -0.021216
      5.81197      7.41676      1.52706         0.003083      0.006105     -0.014249
     -1.73559      7.45382      1.69024         0.017576     -0.003976      0.006860
      0.10954      4.20376      1.57878         0.005703      0.000433     -0.019308
      1.92659      7.69400      1.52165        -0.025558     -0.008287     -0.025423
      7.46321      2.24644     10.47370        -0.013747      0.014072     -0.020855
      3.59095      2.12583     10.34933         0.006419      0.005931     -0.029160
      5.28317      5.39434     10.35167         0.006940     -0.004195     -0.016337
     -1.98117      7.69087      7.52341         0.011352     -0.003925      0.016113
     -0.04620      4.13363      7.63995        -0.004214      0.006926      0.031349
      2.00189      7.43463      7.59613         0.001090      0.007311      0.027890
      7.54460      2.12990      4.38477        -0.011733      0.003278     -0.036054
      3.65692      2.19155      4.44740         0.005569     -0.002143     -0.020709
      5.52472      5.44982      4.46053        -0.004222     -0.007187     -0.018973
      1.97361      5.33157      4.48818         0.025319     -0.019470     -0.001006
      0.00741      8.76982      4.48183         0.007082      0.023987     -0.006799
     -1.96530      5.27487      4.50007        -0.034098     -0.006977      0.004590
      3.55687      4.26111      7.52829        -0.009909      0.006778      0.016634
      7.54508      4.26095      7.51011         0.000175     -0.009166      0.015651
      5.47795      0.97616      7.52551        -0.011069      0.003199      0.003137
      1.70497      5.37748     10.63418        -0.011418      0.000580     -0.023429
     -0.07994      8.66381     10.60025        -0.008386     -0.029964      0.022278
     -1.94199      5.38449     10.63509         0.015783      0.001732      0.004660
      3.67687      4.31518      1.50902        -0.001946     -0.010755      0.025170
      7.50803      4.42530      1.52152        -0.015284     -0.001634      0.012878
      5.63784      1.04736      1.50908         0.007977      0.016728      0.019103
      7.50729      0.21872     11.85074         0.000590      0.000969     -0.001568
      7.02522      6.24397     11.63712         0.005950      0.012074      0.005501
      1.95194      3.15053      0.06332        -0.004459      0.003153     -0.010778
     -1.67825      9.66230      5.85502         0.007342     -0.002906      0.000690
     -1.93531      3.35240      5.92163        -0.003088      0.000067      0.002058
      3.57965      6.25958      5.96099        -0.003082     -0.001315     -0.005149
      1.61502      9.45025      6.21167        -0.000421     -0.000769      0.006991
     -3.56041      6.28004      6.00837         0.009047      0.002231      0.020930
      1.89586      3.44658      5.90858         0.001828      0.002056     -0.002993
     -1.55559      9.15975      2.57124         0.000050     -0.012993      0.004276
     -1.80242      3.33503      2.81189        -0.009602      0.012767      0.014451
      3.52356      6.39826      2.87851         0.003184     -0.003417     -0.003884
      1.78927      3.08559      8.97141         0.004847     -0.011471     -0.001163
     -2.17775      9.58107      9.18420         0.012598      0.012179     -0.009828
      9.39932      2.83267      9.18236        -0.010232      0.000414     -0.009256
      3.90912      6.96399      9.12942         0.006788     -0.015482      0.014246
      1.74644      9.59778      3.05614         0.021371      0.012881     -0.000252
     -3.03790      6.54368      2.79018        -0.029218     -0.005205     -0.017681
      1.88897      3.40247      3.05006         0.007546     -0.004301     -0.000608
     -5.52754      9.63292      0.13508        -0.011897      0.016498      0.025690
      5.57064      9.62691      5.88844        -0.013499      0.010976      0.003737
      5.59709      3.20592      8.94084         0.020338      0.002955      0.007475
     -0.11413      6.50014      8.96278         0.014606      0.008229     -0.070433
      5.60287      3.27037      2.98887        -0.001286     -0.008410      0.031246
     -0.17408      6.55744      0.35615         0.000692     -0.012603      0.031793
 -----------------------------------------------------------------------------------
    total drift:                               -0.000102      0.000221      0.000910


--------------------------------------------------------------------------------------------------------



  FREE ENERGIE OF THE ION-ELECTRON SYSTEM (eV)
  ---------------------------------------------------
  free  energy   TOTEN  =      -261.62086319 eV

  energy  without entropy=     -261.56444407  energy(sigma->0) =     -261.59265363
 


--------------------------------------------------------------------------------------------------------


    POTLOK:  cpu time    0.0711: real time    0.0711


--------------------------------------------------------------------------------------------------------




--------------------------------------------------------------------------------------------------------


    WAVPRE:  cpu time    0.0366: real time    0.0384
    FEWALD:  cpu time    0.0013: real time    0.0013
    ORTHCH:  cpu time    0.2167: real time    0.2167
     LOOP+:  cpu time   34.2279: real time   35.1057


--------------------------------------- Iteration      2(   1)  ---------------------------------------


    POTLOK:  cpu time    0.0619: real time    0.0649
    SETDIJ:  cpu time    0.0062: real time    0.0062
     EDDAV:  cpu time    1.3429: real time    1.3432
       DOS:  cpu time    0.0003: real time    0.0003
    CHARGE:  cpu time    0.0715: real time    0.0716
    MIXING:  cpu time    0.0016: real time    0.0016
    --------------------------------------------
      LOOP:  cpu time    1.4844: real time    1.4879

 eigenvalue-minimisations  :   480
 total energy-change (2. order) :-0.1056874E-02  (-0.1452401E-01)
 number of electron     336.9999995 magnetization 
 augmentation part      -18.8176748 magnetization 

 Broyden mixing:
  rms(total) = 0.68355E-02    rms(broyden)= 0.68344E-02
  rms(prec ) = 0.83434E-02
  weight for this iteration     100.00

 Free energy of the ion-electron system (eV)
  ---------------------------------------------------
  alpha Z        PSCENC =       611.32004817
  Ewald energy   TEWEN  =    -15712.64631811
  -Hartree energ DENC   =     -5200.62377366
  -exchange      EXHF   =         0.00000000
  -V(xc)+E(xc)   XCENC  =       935.28208249
  PAW double counting   =     12251.50402763   -12046.30485630
  entropy T*S    EENTRO =        -0.05641925
  eigenvalues    EBANDS =     -2477.93307604
  atomic energy  EATOM  =     21377.83636145
  Solvation  Ediel_sol  =         0.00000000
  ---------------------------------------------------
  free energy    TOTEN  =      -261.62192363 eV

  energy without entropy =     -261.56550438  energy(sigma->0) =     -261.59371401


--------------------------------------------------------------------------------------------------------




--------------------------------------- Iteration      2(   2)  ---------------------------------------


    POTLOK:  cpu time    0.0639: real time    0.0672
    SETDIJ:  cpu time    0.0062: real time    0.0062
     EDDAV:  cpu time    1.6336: real time    1.6339
       DOS:  cpu time    0.0003: real time    0.0003
    CHARGE:  cpu time    0.0718: real time    0.0718
    MIXING:  cpu time    0.0016: real time    0.0016
    --------------------------------------------
      LOOP:  cpu time    1.7775: real time    1.7811

 eigenvalue-minimisations  :   600
 total energy-change (2. order) :-0.6116059E-03  (-0.6996374E-03)
 number of electron     336.9999995 magnetization 
 augmentation part      -18.8188682 magnetization 

 Broyden mixing:
  rms(total) = 0.26187E-02    rms(broyden)= 0.26158E-02
  rms(prec ) = 0.36752E-02
  weight for this iteration     100.00

 eigenvalues of (default mixing * dielectric matrix)
  average eigenvalue GAMMA=   0.8862
  0.8862

 Free energy of the ion-electron system (eV)
  ---------------------------------------------------
  alpha Z        PSCENC =       611.32004817
  Ewald energy   TEWEN  =    -15712.64631811
  -Hartree energ DENC   =     -5200.73909846
  -exchange      EXHF   =         0.00000000
  -V(xc)+E(xc)   XCENC  =       935.28239938
  PAW double counting   =     12251.72615606   -12046.52880605
  entropy T*S    EENTRO =        -0.05641927
  eigenvalues    EBANDS =     -2477.81685839
  atomic energy  EATOM  =     21377.83636145
  Solvation  Ediel_sol  =         0.00000000
  ---------------------------------------------------
  free energy    TOTEN  =      -261.62253524 eV

  energy without entropy =     -261.56611596  energy(sigma->0) =     -261.59432560


--------------------------------------------------------------------------------------------------------




--------------------------------------- Iteration      2(   3)  ---------------------------------------


    POTLOK:  cpu time    0.0641: real time    0.0673
    SETDIJ:  cpu time    0.0061: real time    0.0061
     EDDAV:  cpu time    1.7720: real time    1.7724
       DOS:  cpu time    0.0003: real time    0.0003
    CHARGE:  cpu time    0.0719: real time    0.0719
    MIXING:  cpu time    0.0016: real time    0.0016
    --------------------------------------------
      LOOP:  cpu time    1.9159: real time    1.9195

 eigenvalue-minimisations  :   660
 total energy-change (2. order) : 0.1059662E-04  (-0.1339733E-04)
 number of electron     336.9999995 magnetization 
 augmentation part      -18.8195662 magnetization 

 Broyden mixing:
  rms(total) = 0.20492E-02    rms(broyden)= 0.20491E-02
  rms(prec ) = 0.27197E-02
  weight for this iteration     100.00

 eigenvalues of (default mixing * dielectric matrix)
  average eigenvalue GAMMA=   1.3483
  1.1843  1.5124

 Free energy of the ion-electron system (eV)
  ---------------------------------------------------
  alpha Z        PSCENC =       611.32004817
  Ewald energy   TEWEN  =    -15712.64631811
  -Hartree energ DENC   =     -5200.81411410
  -exchange      EXHF   =         0.00000000
  -V(xc)+E(xc)   XCENC  =       935.28298391
  PAW double counting   =     12251.90681237   -12046.70536083
  entropy T*S    EENTRO =        -0.05641928
  eigenvalues    EBANDS =     -2477.74651821
  atomic energy  EATOM  =     21377.83636145
  Solvation  Ediel_sol  =         0.00000000
  ---------------------------------------------------
  free energy    TOTEN  =      -261.62252464 eV

  energy without entropy =     -261.56610536  energy(sigma->0) =     -261.59431500


--------------------------------------------------------------------------------------------------------




--------------------------------------- Iteration      2(   4)  ---------------------------------------


    POTLOK:  cpu time    0.0638: real time    0.0670
    SETDIJ:  cpu time    0.0061: real time    0.0061
     EDDAV:  cpu time    1.6451: real time    1.6455
       DOS:  cpu time    0.0003: real time    0.0003
    CHARGE:  cpu time    0.0718: real time    0.0718
    MIXING:  cpu time    0.0017: real time    0.0017
    --------------------------------------------
      LOOP:  cpu time    1.7888: real time    1.7925

 eigenvalue-minimisations  :   600
 total energy-change (2. order) : 0.1192969E-04  (-0.4089279E-05)
 number of electron     336.9999995 magnetization 
 augmentation part      -18.8197152 magnetization 

 Broyden mixing:
  rms(total) = 0.10246E-02    rms(broyden)= 0.10246E-02
  rms(prec ) = 0.12031E-02
  weight for this iteration     100.00

 eigenvalues of (default mixing * dielectric matrix)
  average eigenvalue GAMMA=   1.6093
  2.7766  1.0256  1.0256

 Free energy of the ion-electron system (eV)
  ---------------------------------------------------
  alpha Z        PSCENC =       611.32004817
  Ewald energy   TEWEN  =    -15712.64631811
  -Hartree energ DENC   =     -5200.90445397
  -exchange      EXHF   =         0.00000000
  -V(xc)+E(xc)   XCENC  =       935.28423679
  PAW double counting   =     12252.18868041   -12046.98013391
  entropy T*S    EENTRO =        -0.05641928
  eigenvalues    EBANDS =     -2477.66451426
  atomic energy  EATOM  =     21377.83636145
  Solvation  Ediel_sol  =         0.00000000
  ---------------------------------------------------
  free energy    TOTEN  =      -261.62251271 eV

  energy without entropy =     -261.56609344  energy(sigma->0) =     -261.59430307


--------------------------------------------------------------------------------------------------------




--------------------------------------- Iteration      2(   5)  ---------------------------------------


    POTLOK:  cpu time    0.0640: real time    0.0672
    SETDIJ:  cpu time    0.0060: real time    0.0061
     EDDAV:  cpu time    1.2531: real time    1.2533
       DOS:  cpu time    0.0004: real time    0.0004
    CHARGE:  cpu time    0.0715: real time    0.0715
    MIXING:  cpu time    0.0017: real time    0.0017
    --------------------------------------------
      LOOP:  cpu time    1.3967: real time    1.4001

 eigenvalue-minimisations  :   420
 total energy-change (2. order) :-0.1864664E-05  (-0.1252752E-05)
 number of electron     336.9999995 magnetization 
 augmentation part      -18.8196645 magnetization 

 Broyden mixing:
  rms(total) = 0.65094E-03    rms(broyden)= 0.65094E-03
  rms(prec ) = 0.75005E-03
  weight for this iteration     100.00

 eigenvalues of (default mixing * dielectric matrix)
  average eigenvalue GAMMA=   1.9076
  3.8558  0.9024  1.5757  1.2965

 Free energy of the ion-electron system (eV)
  ---------------------------------------------------
  alpha Z        PSCENC =       611.32004817
  Ewald energy   TEWEN  =    -15712.64631811
  -Hartree energ DENC   =     -5200.92736518
  -exchange      EXHF   =         0.00000000
  -V(xc)+E(xc)   XCENC  =       935.28486521
  PAW double counting   =     12252.35402927   -12047.14232031
  entropy T*S    EENTRO =        -0.05641928
  eigenvalues    EBANDS =     -2477.64539580
  atomic energy  EATOM  =     21377.83636145
  Solvation  Ediel_sol  =         0.00000000
  ---------------------------------------------------
  free energy    TOTEN  =      -261.62251458 eV

  energy without entropy =     -261.56609530  energy(sigma->0) =     -261.59430494


--------------------------------------------------------------------------------------------------------




--------------------------------------- Iteration      2(   6)  ---------------------------------------


    POTLOK:  cpu time    0.0645: real time    0.0679
    SETDIJ:  cpu time    0.0062: real time    0.0062
     EDDAV:  cpu time    1.2526: real time    1.2529
       DOS:  cpu time    0.0003: real time    0.0003
    --------------------------------------------
      LOOP:  cpu time    1.3235: real time    1.3273

 eigenvalue-minimisations  :   420
 total energy-change (2. order) :-0.1651712E-05  (-0.2458770E-06)
 number of electron     336.9999995 magnetization 
 augmentation part      -18.8196645 magnetization 

 Free energy of the ion-electron system (eV)
  ---------------------------------------------------
  alpha Z        PSCENC =       611.32004817
  Ewald energy   TEWEN  =    -15712.64631811
  -Hartree energ DENC   =     -5200.92948114
  -exchange      EXHF   =         0.00000000
  -V(xc)+E(xc)   XCENC  =       935.28523373
  PAW double counting   =     12252.52244189   -12047.30884802
  entropy T*S    EENTRO =        -0.05641928
  eigenvalues    EBANDS =     -2477.64553491
  atomic energy  EATOM  =     21377.83636145
  Solvation  Ediel_sol  =         0.00000000
  ---------------------------------------------------
  free energy    TOTEN  =      -261.62251623 eV

  energy without entropy =     -261.56609695  energy(sigma->0) =     -261.59430659


--------------------------------------------------------------------------------------------------------




 average (electrostatic) potential at core
  the test charge radii are     0.9406  0.7167  0.9406  0.9748  1.1987
  (the norm of the test charge is              1.0000)
       1 -93.5275       2 -93.6034       3 -93.5809       4 -93.4193       5 -93.6367
       6 -93.4370       7 -93.1026       8 -93.4003       9 -93.0927      10 -93.1919
      11 -93.2016      12 -93.2023      13 -77.8204      14 -93.3251      15 -93.2635
      16 -93.2229      17 -93.4360      18 -93.2103      19 -93.2609      20 -93.5677
      21 -93.3363      22 -93.4834      23 -93.3691      24 -93.3075      25 -92.5731
      26 -92.5902      27 -92.5677      28 -93.5049      29 -93.3565      30 -93.3172
      31 -93.6343      32 -93.6815      33 -93.6291      34 -93.4553      35 -93.4025
      36 -93.4113      37 -27.9946      38 -27.9825      39 -28.1372      40 -27.8506
      41 -27.9643      42 -27.8898      43 -28.0779      44 -28.0077      45 -28.0496
      46 -28.0231      47 -27.9994      48 -28.0262      49 -28.1562      50 -28.1292
      51 -28.2079      52 -27.9622      53 -27.7929      54 -27.8441      55 -27.8598
      56 -40.1504      57 -40.5558      58 -40.3096      59 -39.5806      60 -40.4040
      61 -39.6949
 
 
 
 E-fermi :   4.3858     XC(G=0):  -8.3379     alpha+bet : -8.7213


 k-point     1 :       0.0000    0.0000    0.0000
  band No.  band energies     occupation 
      1     -41.0148      2.00000
      2     -40.8643      2.00000
      3     -40.7734      2.00000
      4     -40.6153      2.00000
      5     -40.1925      2.00000
      6     -40.0848      2.00000
      7     -21.7747      2.00000
      8     -21.1413      2.00000
      9     -21.1267      2.00000
     10     -21.1222      2.00000
     11     -20.9949      2.00000
     12     -20.9777      2.00000
     13     -20.9710      2.00000
     14     -20.9046      2.00000
     15     -20.9007      2.00000
     16     -20.8850      2.00000
     17     -20.7522      2.00000
     18     -20.7378      2.00000
     19     -20.7303      2.00000
     20     -20.4069      2.00000
     21     -20.3626      2.00000
     22     -20.3267      2.00000
     23     -20.2955      2.00000
     24     -20.0978      2.00000
     25     -19.7861      2.00000
     26     -13.5214      2.00000
     27     -13.3241      2.00000
     28     -13.2637      2.00000
     29     -13.2039      2.00000
     30     -13.1849      2.00000
     31     -13.1758      2.00000
     32     -13.1509      2.00000
     33     -13.1353      2.00000
     34     -13.1164      2.00000
     35     -13.1080      2.00000
     36     -13.0737      2.00000
     37     -13.0524      2.00000
     38     -12.9958      2.00000
     39     -12.9865      2.00000
     40     -12.9695      2.00000
     41     -12.9559      2.00000
     42     -12.9248      2.00000
     43     -12.9086      2.00000
     44     -12.8960      2.00000
     45     -12.8671      2.00000
     46     -12.8567      2.00000
     47     -12.8482      2.00000
     48     -12.8125      2.00000
     49     -12.7865      2.00000
     50     -12.7787      2.00000
     51     -12.7661      2.00000
     52     -12.7363      2.00000
     53     -12.7025      2.00000
     54     -12.6719      2.00000
     55     -12.6474      2.00000
     56     -12.5656      2.00000
     57     -12.5609      2.00000
     58     -12.2028      2.00000
     59     -12.1776      2.00000
     60     -12.1549      2.00000
     61      -3.4734      2.00000
     62      -3.2033      2.00000
     63      -2.9592      2.00000
     64      -2.7654      2.00000
     65      -2.7586      2.00000
     66      -2.7104      2.00000
     67      -2.6616      2.00000
     68      -2.6405      2.00000
     69      -2.6307      2.00000
     70      -2.5613      2.00000
     71      -2.5503      2.00000
     72      -2.5352      2.00000
     73      -2.5089      2.00000
     74      -2.4818      2.00000
     75      -2.4780      2.00000
     76      -2.4486      2.00000
     77      -2.4181      2.00000
     78      -2.4157      2.00000
     79      -2.3809      2.00000
     80      -2.3580      2.00000
     81      -2.3316      2.00000
     82      -2.3005      2.00000
     83      -2.2956      2.00000
     84      -2.2698      2.00000
     85      -2.2263      2.00000
     86      -2.1814      2.00000
     87      -2.1769      2.00000
     88      -2.1423      2.00000
     89      -2.1209      2.00000
     90      -2.1126      2.00000
     91      -2.0755      2.00000
     92      -2.0658      2.00000
     93      -2.0260      2.00000
     94      -1.9790      2.00000
     95      -1.9639      2.00000
     96      -1.9575      2.00000
     97      -1.9174      2.00000
     98      -1.8813      2.00000
     99      -1.8533      2.00000
    100      -1.8093      2.00000
    101      -1.7922      2.00000
    102      -1.7195      2.00000
    103      -1.6977      2.00000
    104      -1.6583      2.00000
    105      -1.6255      2.00000
    106      -1.5976      2.00000
    107      -1.5384      2.00000
    108      -1.5300      2.00000
    109      -1.5000      2.00000
    110      -1.4645      2.00000
    111      -1.4377      2.00000
    112      -1.4263      2.00000
    113      -1.3982      2.00000
    114      -1.3715      2.00000
    115      -1.3703      2.00000
    116      -1.3118      2.00000
    117      -1.2830      2.00000
    118      -1.2623      2.00000
    119      -1.2140      2.00000
    120      -1.1851      2.00000
    121      -1.1504      2.00000
    122      -1.1194      2.00000
    123      -1.1043      2.00000
    124      -1.0758      2.00000
    125      -1.0602      2.00000
    126      -1.0186      2.00000
    127      -0.9743      2.00000
    128      -0.9589      2.00000
    129      -0.9334      2.00000
    130      -0.9097      2.00000
    131      -0.8870      2.00000
    132      -0.8748      2.00000
    133      -0.8384      2.00000
    134      -0.8327      2.00000
    135      -0.8173      2.00000
    136      -0.7939      2.00000
    137      -0.7653      2.00000
    138      -0.7476      2.00000
    139      -0.7328      2.00000
    140      -0.7063      2.00000
    141      -0.6830      2.00000
    142      -0.6614      2.00000
    143      -0.6241      2.00000
    144      -0.6105      2.00000
    145      -0.5818      2.00000
    146      -0.5635      2.00000
    147      -0.5491      2.00000
    148      -0.5341      2.00000
    149      -0.5215      2.00000
    150      -0.5019      2.00000
    151      -0.4496      2.00000
    152      -0.4427      2.00000
    153      -0.4159      2.00000
    154      -0.3754      2.00000
    155      -0.3643      2.00000
    156      -0.3345      2.00000
    157      -0.3214      2.00000
    158      -0.3087      2.00000
    159      -0.2741      2.00000
    160      -0.2656      2.00000
    161      -0.2256      2.00000
    162      -0.2181      2.00000
    163      -0.1671      2.00000
    164      -0.1517      2.00000
    165      -0.1306      2.00000
    166      -0.0704      2.00000
    167       0.2678      2.00000
    168       0.2980      2.00000
    169       4.3858      1.00000
    170       4.7348      0.00000
    171       4.7679      0.00000
    172       4.7907      0.00000
    173       4.8930      0.00000
    174       4.9056      0.00000
    175       4.9388      0.00000
    176       5.0044      0.00000
    177       5.0091      0.00000
    178       5.0743      0.00000
    179       5.1120      0.00000
    180       5.1216      0.00000
    181       5.2479      0.00000
    182       5.2779      0.00000
    183       5.3150      0.00000
    184       5.4216      0.00000
    185       5.5232      0.00000
    186       5.9648      0.00000
    187       6.3337      0.00000
    188       6.6626      0.00000
    189       6.7106      0.00000
    190       6.7229      0.00000
    191       6.7775      0.00000
    192       6.8645      0.00000
    193       6.8787      0.00000
    194       6.9415      0.00000
    195       6.9769      0.00000
    196       7.0325      0.00000
    197       7.0838      0.00000
    198       7.1011      0.00000
    199       7.1345      0.00000
    200       7.1703      0.00000
    201       7.1973      0.00000
    202       7.4136      0.00000
    203       7.6639      0.00000
    204       7.7506      0.00000
    205       7.7694      0.00000
    206       7.8047      0.00000
    207       7.8757      0.00000
    208       7.9395      0.00000
    209       7.9737      0.00000
    210       8.0225      0.00000
    211       8.0681      0.00000
    212       8.1000      0.00000
    213       8.1648      0.00000
    214       8.2027      0.00000
    215       8.2485      0.00000
    216       8.2963      0.00000
    217       8.3728      0.00000
    218       8.4538      0.00000
    219       8.4728      0.00000
    220       8.5192      0.00000
    221       8.6080      0.00000
    222       8.6997      0.00000
    223       8.7771      0.00000
    224       8.7866      0.00000
    225       8.9313      0.00000
    226       8.9372      0.00000
    227       8.9619      0.00000
    228       9.0266      0.00000
    229       9.1595      0.00000
    230       9.1922      0.00000
    231       9.2228      0.00000
    232       9.3699      0.00000
    233       9.3807      0.00000
    234       9.4854      0.00000
    235       9.5403      0.00000
    236       9.5940      0.00000
    237       9.6178      0.00000
    238       9.6834      0.00000
    239       9.7110      0.00000
    240       9.7599      0.00000


--------------------------------------------------------------------------------------------------------


 soft charge-density along one line, spin component           1
         0         1         2         3         4         5         6         7         8         9
 total charge-density along one line
 
 pseudopotential strength for first ion, spin component:           1
 47.718  -0.017   0.002   0.007  -0.004   0.000   0.000  -0.000
 -0.017   0.019   0.000   0.000  -0.000   0.000   0.000  -0.000
  0.002   0.000   9.141   0.001  -0.001  -0.000  -0.000   0.000
  0.007   0.000   0.001   9.142  -0.002  -0.000  -0.000   0.000
 -0.004  -0.000  -0.001  -0.002   9.143   0.000   0.000  -0.000
  0.000   0.000  -0.000  -0.000   0.000   0.035   0.000  -0.000
  0.000   0.000  -0.000  -0.000   0.000   0.000   0.035  -0.000
 -0.000  -0.000   0.000   0.000  -0.000  -0.000  -0.000   0.035
 total augmentation occupancy for first ion, spin component:           1
  1.918   0.392  -0.011  -0.031   0.020  -0.014  -0.035   0.024
  0.392   0.323   0.062   0.173  -0.112  -0.024  -0.076   0.043
 -0.011   0.062   1.771  -0.022   0.012  -0.352  -0.041   0.026
 -0.031   0.173  -0.022   1.765   0.036  -0.041  -0.361   0.060
  0.020  -0.112   0.012   0.036   1.759   0.026   0.060  -0.384
 -0.014  -0.024  -0.352  -0.041   0.026   0.102   0.022  -0.016
 -0.035  -0.076  -0.041  -0.361   0.060   0.022   0.109  -0.034
  0.024   0.043   0.026   0.060  -0.384  -0.016  -0.034   0.123


------------------------ aborting loop because EDIFF is reached ----------------------------------------


 


 total charge     
 
# of ion       s       p       d       tot
------------------------------------------
    1        1.592   3.579   0.000   5.171
    2        1.593   3.584   0.000   5.177
    3        1.593   3.583   0.000   5.176
    4        1.593   3.579   0.000   5.172
    5        1.592   3.585   0.000   5.178
    6        1.594   3.581   0.000   5.175
    7        1.592   3.590   0.000   5.182
    8        1.590   3.597   0.000   5.187
    9        1.592   3.595   0.000   5.186
   10        1.592   3.583   0.000   5.175
   11        1.593   3.578   0.000   5.171
   12        1.594   3.576   0.000   5.170
   13        1.731   4.376   0.000   6.107
   14        1.591   3.596   0.000   5.186
   15        1.591   3.590   0.000   5.182
   16        1.593   3.589   0.000   5.182
   17        1.593   3.587   0.000   5.180
   18        1.592   3.597   0.000   5.188
   19        1.592   3.586   0.000   5.177
   20        1.591   3.584   0.000   5.176
   21        1.590   3.591   0.000   5.181
   22        1.594   3.583   0.000   5.177
   23        1.593   3.583   0.000   5.176
   24        1.594   3.579   0.000   5.173
   25        1.589   3.596   0.000   5.185
   26        1.588   3.595   0.000   5.183
   27        1.588   3.593   0.000   5.181
   28        1.591   3.593   0.000   5.184
   29        1.592   3.587   0.000   5.179
   30        1.591   3.590   0.000   5.181
   31        1.594   3.568   0.000   5.162
   32        1.594   3.566   0.000   5.160
   33        1.594   3.568   0.000   5.162
   34        1.593   3.586   0.000   5.179
   35        1.593   3.582   0.000   5.175
   36        1.593   3.584   0.000   5.176
   37        0.059   0.112   0.000   0.171
   38        0.065   0.123   0.000   0.188
   39        0.061   0.115   0.000   0.175
   40        0.064   0.121   0.000   0.185
   41        0.062   0.118   0.000   0.181
   42        0.064   0.121   0.000   0.184
   43        0.058   0.106   0.000   0.164
   44        0.057   0.105   0.000   0.162
   45        0.064   0.122   0.000   0.186
   46        0.060   0.113   0.000   0.172
   47        0.059   0.110   0.000   0.169
   48        0.058   0.107   0.000   0.165
   49        0.065   0.124   0.000   0.189
   50        0.059   0.110   0.000   0.169
   51        0.059   0.107   0.000   0.166
   52        0.066   0.122   0.000   0.188
   53        0.066   0.127   0.000   0.193
   54        0.065   0.125   0.000   0.190
   55        0.067   0.129   0.000   0.196
   56        2.123   6.134   0.700   8.958
   57        2.122   6.129   0.690   8.941
   58        2.122   6.132   0.700   8.954
   59        2.106   6.090   0.841   9.037
   60        2.122   6.130   0.692   8.944
   61        2.104   6.090   0.812   9.005
--------------------------------------------------
tot         71.328 168.781   4.436 244.545
 
    CHARGE:  cpu time    0.0709: real time    0.0709
    FORLOC:  cpu time    0.0227: real time    0.0227
    FORNL :  cpu time    0.4547: real time    0.4547
    STRESS:  cpu time    1.4560: real time    1.4561
    FORCOR:  cpu time    0.0716: real time    0.0716
    FORHAR:  cpu time    0.0331: real time    0.0331
    MIXING:  cpu time    0.0018: real time    0.0018
    OFIELD:  cpu time    0.0000: real time    0.0000

  FORCE on cell =-STRESS in cart. coord.  units (eV):
  Direction    XX          YY          ZZ          XY          YZ          ZX
  --------------------------------------------------------------------------------------
  Alpha Z   611.32005   611.32005   611.32005
  Ewald   -5104.97371 -5140.86514 -5466.88380   -69.94277    74.65723   -78.26193
  Hartree  1805.65670  1784.58521  1610.68233   -41.96547    52.03366   -58.12232
  E(xc)   -1264.70519 -1264.71396 -1264.99797    -0.10714     0.04286     0.02441
  Local   -3119.58992 -3065.59548 -2576.07149   110.05600  -127.57205   136.62275
  n-local  2567.43106  2567.08491  2562.12898    -0.00813    -0.42047     0.08530
  augment  -581.16203  -581.21753  -580.15761    -0.17926    -0.16538     0.51478
  Kinetic  5094.70088  5098.68831  5112.46365     2.61147     1.11450     0.46580
  Fock        0.00000     0.00000     0.00000     0.00000     0.00000     0.00000
  -------------------------------------------------------------------------------------
  Total       8.67784     9.28638     8.48414     0.46470    -0.30965     1.32879
  in kB      10.75792    11.51233    10.51780     0.57608    -0.38388     1.64730
  external pressure =       10.93 kB  Pullay stress =        0.00 kB


 VOLUME and BASIS-vectors are now :
 -----------------------------------------------------------------------------
  energy-cutoff  :      520.00
  volume of cell :     1292.39
      direct lattice vectors                 reciprocal lattice vectors
    11.158300400  0.000000000  0.000000000     0.089619383  0.051741775  0.000000000
    -5.579150200  9.663371609  0.000000000     0.000000000  0.103483550  0.000000000
     0.000000000  0.000000000 11.985799789     0.000000000  0.000000000  0.083432063

  length of vectors
    11.158300400 11.158300400 11.985799789     0.103483550  0.103483550  0.083432063


 FORCES acting on ions
    electron-ion (+dipol)            ewald-force                    non-local-force                 convergence-correction
 -----------------------------------------------------------------------------------------------
   -.686E+02 0.394E+02 0.440E+02   0.687E+02 -.395E+02 -.444E+02   -.174E+00 0.666E-01 0.370E+00   0.697E-03 -.418E-03 0.794E-03
   0.229E+01 -.836E+02 0.488E+02   -.237E+01 0.839E+02 -.493E+02   0.888E-01 -.291E+00 0.534E+00   0.154E-03 0.336E-03 0.133E-02
   0.760E+02 0.433E+02 0.494E+02   -.763E+02 -.434E+02 -.498E+02   0.273E+00 0.177E+00 0.423E+00   -.837E-03 -.330E-03 0.998E-03
   0.712E+02 -.242E+02 -.612E+02   -.718E+02 0.240E+02 0.617E+02   0.600E+00 0.201E+00 -.568E+00   0.227E-04 -.244E-03 -.163E-02
   -.484E+02 -.246E+02 -.471E+02   0.488E+02 0.246E+02 0.474E+02   -.371E+00 -.322E-01 -.276E+00   0.450E-03 0.503E-03 -.589E-03
   -.741E+01 0.724E+02 -.629E+02   0.801E+01 -.728E+02 0.635E+02   -.606E+00 0.413E+00 -.593E+00   0.207E-04 -.880E-03 -.117E-02
   -.341E+02 0.310E+02 0.747E+02   0.343E+02 -.314E+02 -.752E+02   -.180E+00 0.423E+00 0.457E+00   0.453E-03 -.115E-02 0.193E-03
   0.163E+02 -.402E+02 0.562E+02   -.165E+02 0.406E+02 -.563E+02   0.253E+00 -.354E+00 0.134E+00   0.525E-03 0.326E-03 0.118E-02
   0.550E+02 0.280E+02 0.753E+02   -.554E+02 -.278E+02 -.757E+02   0.432E+00 -.188E+00 0.498E+00   -.224E-03 0.573E-03 0.117E-02
   0.516E+02 -.400E+02 -.510E+02   -.517E+02 0.403E+02 0.513E+02   0.166E+00 -.325E+00 -.327E+00   0.658E-04 -.751E-03 -.117E-02
   -.628E+02 -.255E+02 -.563E+02   0.633E+02 0.253E+02 0.568E+02   -.518E+00 0.166E+00 -.510E+00   -.321E-03 0.120E-03 -.960E-03
   0.184E+02 0.687E+02 -.557E+02   -.186E+02 -.691E+02 0.563E+02   0.252E+00 0.436E+00 -.568E+00   0.341E-03 -.333E-03 -.650E-03
   0.939E+02 -.610E+02 -.114E+03   -.990E+02 0.636E+02 0.115E+03   0.506E+01 -.251E+01 -.955E+00   0.174E-03 -.374E-04 -.630E-03
   -.158E+01 0.733E+02 -.757E+02   0.139E+01 -.739E+02 0.758E+02   0.201E+00 0.512E+00 -.470E-01   0.383E-03 0.580E-03 -.756E-03
   -.836E+02 -.208E+02 -.689E+02   0.842E+02 0.209E+02 0.688E+02   -.669E+00 -.143E+00 0.125E+00   -.135E-02 -.394E-03 -.921E-03
   -.655E+02 0.364E+02 -.553E+02   0.657E+02 -.362E+02 0.559E+02   -.209E+00 -.185E+00 -.639E+00   -.517E-03 0.602E-03 -.913E-03
   0.446E+02 0.369E+02 -.602E+02   -.445E+02 -.375E+02 0.611E+02   -.601E-01 0.563E+00 -.906E+00   -.469E-04 -.271E-03 -.111E-02
   0.650E+01 -.798E+02 -.531E+02   -.706E+01 0.799E+02 0.536E+02   0.565E+00 -.148E+00 -.573E+00   0.770E-04 0.522E-03 -.675E-03
   0.536E+02 -.157E+02 0.786E+02   -.541E+02 0.157E+02 -.789E+02   0.546E+00 -.242E-01 0.274E+00   0.934E-03 -.332E-03 0.572E-03
   0.597E+01 0.486E+02 0.795E+02   -.610E+01 -.489E+02 -.801E+02   0.126E+00 0.292E+00 0.584E+00   -.347E-03 0.826E-03 0.111E-02
   -.501E+02 -.376E+02 0.706E+02   0.504E+02 0.378E+02 -.708E+02   -.298E+00 -.252E+00 0.230E+00   -.747E-03 0.186E-03 0.118E-02
   -.558E+02 0.357E+02 -.656E+02   0.560E+02 -.360E+02 0.661E+02   -.179E+00 0.287E+00 -.565E+00   -.622E-04 -.234E-03 -.169E-02
   0.528E+02 0.386E+02 -.571E+02   -.529E+02 -.390E+02 0.574E+02   0.136E+00 0.419E+00 -.347E+00   -.301E-03 -.126E-03 -.988E-03
   -.251E+01 -.692E+02 -.621E+02   0.277E+01 0.696E+02 0.623E+02   -.257E+00 -.429E+00 -.293E+00   -.297E-03 0.421E-03 -.866E-03
   0.448E+02 -.308E+02 -.157E+02   -.462E+02 0.317E+02 0.157E+02   0.138E+01 -.903E+00 0.666E-01   0.760E-03 -.576E-03 -.415E-03
   -.571E+01 0.445E+02 -.287E+02   0.570E+01 -.458E+02 0.288E+02   0.107E-01 0.134E+01 -.447E-01   0.158E-03 0.391E-03 -.236E-03
   -.405E+02 -.206E+02 -.290E+02   0.417E+02 0.211E+02 0.291E+02   -.122E+01 -.567E+00 -.876E-01   -.753E-03 -.204E-03 0.103E-03
   0.482E+02 -.395E+02 0.654E+02   -.483E+02 0.399E+02 -.656E+02   0.132E+00 -.389E+00 0.179E+00   -.910E-03 0.594E-03 0.778E-03
   -.554E+02 -.428E+02 0.628E+02   0.556E+02 0.432E+02 -.628E+02   -.230E+00 -.418E+00 -.635E-01   0.495E-03 -.810E-04 0.105E-02
   -.178E+02 0.701E+02 0.657E+02   0.179E+02 -.705E+02 -.656E+02   -.104E+00 0.390E+00 -.372E-01   -.535E-03 -.905E-03 0.390E-03
   -.137E+03 0.606E+02 -.375E+01   0.139E+03 -.608E+02 0.397E+01   -.157E+01 0.164E+00 -.239E+00   0.100E-02 -.696E-03 -.971E-03
   -.121E+02 -.154E+03 0.137E+02   0.122E+02 0.156E+03 -.137E+02   -.889E-01 -.176E+01 0.166E-01   -.265E-03 0.393E-03 0.106E-02
   0.133E+03 0.875E+02 0.152E+02   -.135E+03 -.886E+02 -.152E+02   0.121E+01 0.119E+01 0.373E-01   -.101E-02 -.749E-03 0.792E-03
   0.490E+02 -.449E+02 0.587E+02   -.488E+02 0.455E+02 -.597E+02   -.145E+00 -.585E+00 0.961E+00   -.102E-02 0.259E-03 0.813E-03
   -.471E+02 -.162E+02 0.519E+02   0.474E+02 0.159E+02 -.528E+02   -.350E+00 0.287E+00 0.874E+00   0.312E-03 0.674E-03 0.198E-03
   0.666E+01 0.498E+02 0.536E+02   -.704E+01 -.499E+02 -.545E+02   0.382E+00 0.944E-01 0.946E+00   0.479E-03 -.190E-03 0.335E-03
   0.242E+01 -.270E+01 0.519E+00   -.204E+01 0.286E+01 -.742E+00   -.378E+00 -.164E+00 0.220E+00   -.189E-04 -.258E-04 0.109E-04
   0.134E+01 0.404E+01 -.223E+00   -.187E+01 -.393E+01 -.172E+00   0.536E+00 -.101E+00 0.398E+00   0.328E-04 -.355E-07 -.272E-05
   -.473E+01 -.108E+01 -.231E+00   0.467E+01 0.815E+00 0.389E+00   0.592E-01 0.273E+00 -.170E+00   -.164E-04 0.151E-04 0.209E-05
   -.117E+01 0.125E+01 0.680E+00   0.177E+01 -.151E+01 -.983E+00   -.590E+00 0.258E+00 0.303E+00   0.565E-05 -.130E-04 0.118E-04
   -.121E+01 -.276E+01 0.173E-01   0.997E+00 0.316E+01 -.240E+00   0.209E+00 -.398E+00 0.225E+00   0.817E-05 0.466E-05 0.115E-04
   0.184E+01 -.309E+00 -.104E+00   -.226E+01 -.331E-02 -.182E+00   0.418E+00 0.310E+00 0.282E+00   0.489E-05 0.387E-05 -.306E-05
   0.515E+00 0.424E+00 0.142E+01   -.965E+00 -.694E+00 -.132E+01   0.449E+00 0.269E+00 -.948E-01   -.579E-05 -.214E-04 0.329E-05
   -.158E+01 0.446E+00 -.425E+00   0.200E+01 -.780E+00 0.257E+00   -.410E+00 0.337E+00 0.189E+00   0.246E-05 0.120E-04 0.541E-05
   0.257E+01 -.212E+01 0.401E-01   -.233E+01 0.270E+01 -.418E+00   -.235E+00 -.581E+00 0.377E+00   0.340E-05 0.479E-06 0.259E-05
   0.409E+01 -.116E+02 -.961E+01   -.355E+01 0.110E+02 0.936E+01   -.538E+00 0.627E+00 0.246E+00   0.231E-04 -.180E-04 -.305E-04
   -.351E+01 0.136E+01 -.318E+01   0.352E+01 -.103E+01 0.299E+01   -.178E-01 -.315E+00 0.199E+00   -.249E-04 0.207E-04 -.290E-04
   -.153E+00 -.483E+01 -.656E+00   -.340E+00 0.453E+01 0.689E+00   0.496E+00 0.296E+00 -.385E-01   -.555E-05 -.281E-04 -.119E-04
   0.104E+01 0.689E+00 0.208E+01   -.106E+01 -.966E+00 -.203E+01   0.297E-01 0.266E+00 -.467E-01   0.185E-04 0.388E-04 0.188E-04
   0.201E+01 -.214E+01 0.226E+01   -.232E+01 0.197E+01 -.205E+01   0.322E+00 0.187E+00 -.217E+00   0.364E-04 -.162E-04 0.166E-04
   0.139E+00 0.156E+01 0.194E+01   -.199E+00 -.197E+01 -.167E+01   0.520E-01 0.416E+00 -.279E+00   -.206E-04 0.545E-04 0.228E-04
   -.806E+00 0.380E-01 0.125E+01   0.104E+01 0.396E+00 -.102E+01   -.228E+00 -.448E+00 -.211E+00   -.229E-04 -.404E-04 0.142E-04
   -.349E+01 0.270E+01 -.340E+01   0.303E+01 -.296E+01 0.351E+01   0.474E+00 0.272E+00 -.113E+00   -.276E-04 0.178E-05 -.213E-04
   0.969E+01 0.205E+01 -.117E+02   -.891E+01 -.223E+01 0.115E+02   -.806E+00 0.173E+00 0.106E+00   0.515E-05 -.720E-05 -.450E-04
   0.429E+01 0.113E+01 -.253E+01   -.423E+01 -.582E+00 0.264E+01   -.466E-01 -.552E+00 -.113E+00   0.279E-04 0.252E-04 -.242E-04
   0.114E+02 0.136E+01 -.103E+02   -.112E+02 -.196E+01 0.100E+02   -.194E+00 0.610E+00 0.357E+00   -.247E-03 -.405E-04 -.312E-03
   0.825E+00 0.570E+01 0.810E+01   -.128E+01 -.581E+01 -.747E+01   0.455E+00 0.117E+00 -.621E+00   -.560E-04 0.587E-05 0.262E-03
   -.184E+02 -.371E+01 0.188E+02   0.187E+02 0.369E+01 -.181E+02   -.306E+00 0.221E-01 -.666E+00   0.356E-03 -.297E-03 0.706E-03
   0.176E+01 -.704E+01 0.147E+03   -.172E+01 0.726E+01 -.147E+03   -.297E-01 -.208E+00 -.213E+00   -.316E-04 0.253E-03 0.580E-03
   -.397E+01 0.177E+01 -.763E+01   0.380E+01 -.150E+01 0.779E+01   0.163E+00 -.273E+00 -.140E+00   0.244E-03 -.697E-04 -.498E-03
   -.432E+02 0.208E+02 -.742E+02   0.432E+02 -.207E+02 0.745E+02   -.567E-01 -.746E-01 -.322E+00   -.307E-03 0.915E-03 0.109E-02
 -----------------------------------------------------------------------------------------------
   -.440E+01 0.764E+00 0.127E+01   -.711E-13 0.139E-12 0.568E-13   0.440E+01 -.763E+00 -.127E+01   -.206E-02 -.818E-03 -.523E-03
 
 
 POSITION                                       TOTAL-FORCE (eV/Angst)
 -----------------------------------------------------------------------------------
     -3.58080      8.54570      4.49580        -0.000486      0.000668      0.019470
      0.03124      2.27072      4.54265         0.002623     -0.001550      0.026376
      3.60125      8.52130      4.51913        -0.007400     -0.000579      0.021561
      9.24068      1.11257      7.30726         0.000888      0.000163     -0.030746
      1.88726      1.10470      7.37146        -0.003038      0.008271     -0.018517
      5.54136      7.42108      7.31255        -0.006849     -0.008057     -0.030891
     -3.75915      8.44413     10.59008        -0.003903      0.000360      0.006821
      0.14560      2.16183     10.54967         0.003583      0.004012      0.015755
      3.68546      8.80257     10.55975         0.003972      0.012104      0.014349
      9.24724      1.07866      1.53711        -0.001387     -0.005328     -0.013015
      1.96227      1.15805      1.52707        -0.002703      0.000439     -0.015052
      5.81212      7.41705      1.52637         0.002321      0.002344     -0.008961
     -1.73474      7.45363      1.69058         0.010184     -0.003155      0.012608
      0.10981      4.20378      1.57785         0.004792     -0.007744     -0.010069
      1.92536      7.69360      1.52043        -0.014654     -0.003841     -0.015626
      7.46254      2.24712     10.47269        -0.004910      0.007334     -0.012447
      3.59126      2.12612     10.34793         0.004312      0.003707     -0.024756
      5.28351      5.39414     10.35089         0.007743     -0.000010     -0.011979
     -1.98062      7.69068      7.52418         0.002455      0.000863      0.006951
     -0.04640      4.13397      7.64146        -0.005714     -0.000831      0.022198
      2.00195      7.43498      7.59747         0.008752      0.012222      0.019355
      7.54403      2.13006      4.38303        -0.000085     -0.001092     -0.026559
      3.65719      2.19144      4.44640        -0.000754     -0.006424     -0.014386
      5.52452      5.44947      4.45962        -0.004077     -0.000481     -0.013799
      1.97483      5.33063      4.48813         0.020193     -0.016084     -0.000711
      0.00775      8.77098      4.48150         0.007909      0.020760     -0.004940
     -1.96694      5.27454      4.50030        -0.029968     -0.007100      0.004593
      3.55640      4.26143      7.52909        -0.009236      0.007097      0.013589
      7.54509      4.26051      7.51086         0.006166     -0.006607      0.009472
      5.47741      0.97632      7.52567        -0.009256      0.000726      0.000806
      1.70442      5.37750     10.63305        -0.008910     -0.000436     -0.021666
     -0.08034      8.66237     10.60133        -0.007451     -0.024836      0.019006
     -1.94123      5.38457     10.63532         0.015506      0.002220      0.001940
      3.67677      4.31466      1.51023        -0.003941     -0.009342      0.020700
      7.50729      4.42522      1.52214        -0.012129     -0.000464      0.010269
      5.63823      1.04817      1.51000         0.007985      0.012043      0.014386
      7.50732      0.21877     11.85066        -0.002031      0.000098     -0.002914
      7.02550      6.24455     11.63739         0.006689      0.011230      0.002559
      1.95172      3.15068      0.06280        -0.003100      0.004388     -0.011776
     -1.67790      9.66216      5.85506         0.005772     -0.002118      0.000548
     -1.93546      3.35240      5.92173        -0.003036      0.000164      0.002370
      3.57950      6.25952      5.96074        -0.001015     -0.001851     -0.003327
      1.61500      9.45021      6.21201        -0.001097     -0.000794      0.007061
     -3.55997      6.28014      6.00938         0.007047      0.003568      0.020498
      1.89595      3.44668      5.90843         0.003476      0.000523     -0.000431
     -1.55559      9.15913      2.57145         0.001103     -0.011079      0.003738
     -1.80288      3.33564      2.81259        -0.009510      0.013618      0.012338
      3.52371      6.39810      2.87832         0.003538     -0.003834     -0.005307
      1.78950      3.08504      8.97136         0.005171     -0.010173      0.000010
     -2.17714      9.58165      9.18372         0.011692      0.010816     -0.006314
      9.39883      2.83269      9.18191        -0.007963      0.002052     -0.006841
      3.90945      6.96324      9.13010         0.006714     -0.013938      0.015624
      1.74747      9.59840      3.05613         0.019824      0.011594     -0.001733
     -3.03931      6.54343      2.78933        -0.029065     -0.004547     -0.016848
      1.88933      3.40226      3.05003         0.007885     -0.004810     -0.002499
     -5.52811      9.63371      0.13632        -0.001276      0.009249      0.011372
      5.56999      9.62744      5.88862        -0.001855      0.002733      0.001735
      5.59807      3.20606      8.94120         0.006124      0.004135      0.001892
     -0.11342      6.50054      8.95938         0.010520      0.004476     -0.030740
      5.60281      3.26997      2.99038        -0.005024     -0.003861      0.018488
     -0.17405      6.55684      0.35769        -0.003114     -0.013014      0.004416
 -----------------------------------------------------------------------------------
    total drift:                               -0.001949      0.000034     -0.001144


--------------------------------------------------------------------------------------------------------



  FREE ENERGIE OF THE ION-ELECTRON SYSTEM (eV)
  ---------------------------------------------------
  free  energy   TOTEN  =      -261.62251623 eV

  energy  without entropy=     -261.56609695  energy(sigma->0) =     -261.59430659
 
 d Force = 0.1649824E-02[ 0.134E-02, 0.196E-02]  d Energy = 0.1653038E-02-0.321E-05
 d Force =-0.2613789E+01[-0.262E+01,-0.261E+01]  d Ewald  =-0.2613791E+01 0.181E-05


--------------------------------------------------------------------------------------------------------


    POTLOK:  cpu time    0.0695: real time    0.0696


--------------------------------------------------------------------------------------------------------


 Steepest descent step on ions:
 trial-energy change:   -0.001653  1 .order   -0.001650   -0.001955   -0.001344
  (g-gl).g = 0.196E-02      g.g   = 0.196E-02  gl.gl    = 0.000E+00
 g(Force)  = 0.196E-02   g(Stress)= 0.000E+00 ortho     = 0.000E+00
 gamma     =   0.00000
 trial     =   1.00000
 opt step  =   3.19957  (harmonic =   3.19957) maximal distance =0.00551514
 next E    =  -261.623991   (d E  =  -0.00313)


--------------------------------------------------------------------------------------------------------


  
 reached required accuracy - stopping structural energy minimisation
     LOOP+:  cpu time   11.8869: real time   11.9138
    4ORBIT:  cpu time    0.0000: real time    0.0000
 


 total charge     
 
# of ion       s       p       d       tot
------------------------------------------
    1        1.592   3.579   0.000   5.171
    2        1.593   3.584   0.000   5.177
    3        1.593   3.583   0.000   5.176
    4        1.593   3.579   0.000   5.172
    5        1.592   3.585   0.000   5.178
    6        1.594   3.581   0.000   5.175
    7        1.592   3.590   0.000   5.182
    8        1.590   3.597   0.000   5.187
    9        1.592   3.595   0.000   5.186
   10        1.592   3.583   0.000   5.175
   11        1.593   3.578   0.000   5.171
   12        1.594   3.576   0.000   5.170
   13        1.731   4.376   0.000   6.107
   14        1.591   3.596   0.000   5.186
   15        1.591   3.590   0.000   5.182
   16        1.593   3.589   0.000   5.182
   17        1.593   3.587   0.000   5.180
   18        1.592   3.597   0.000   5.188
   19        1.592   3.586   0.000   5.177
   20        1.591   3.584   0.000   5.176
   21        1.590   3.591   0.000   5.181
   22        1.594   3.583   0.000   5.177
   23        1.593   3.583   0.000   5.176
   24        1.594   3.579   0.000   5.173
   25        1.589   3.596   0.000   5.185
   26        1.588   3.595   0.000   5.183
   27        1.588   3.593   0.000   5.181
   28        1.591   3.593   0.000   5.184
   29        1.592   3.587   0.000   5.179
   30        1.591   3.590   0.000   5.181
   31        1.594   3.568   0.000   5.162
   32        1.594   3.566   0.000   5.160
   33        1.594   3.568   0.000   5.162
   34        1.593   3.586   0.000   5.179
   35        1.593   3.582   0.000   5.175
   36        1.593   3.584   0.000   5.176
   37        0.059   0.112   0.000   0.171
   38        0.065   0.123   0.000   0.188
   39        0.061   0.115   0.000   0.175
   40        0.064   0.121   0.000   0.185
   41        0.062   0.118   0.000   0.181
   42        0.064   0.121   0.000   0.184
   43        0.058   0.106   0.000   0.164
   44        0.057   0.105   0.000   0.162
   45        0.064   0.122   0.000   0.186
   46        0.060   0.113   0.000   0.172
   47        0.059   0.110   0.000   0.169
   48        0.058   0.107   0.000   0.165
   49        0.065   0.124   0.000   0.189
   50        0.059   0.110   0.000   0.169
   51        0.059   0.107   0.000   0.166
   52        0.066   0.122   0.000   0.188
   53        0.066   0.127   0.000   0.193
   54        0.065   0.125   0.000   0.190
   55        0.067   0.129   0.000   0.196
   56        2.123   6.134   0.700   8.958
   57        2.122   6.129   0.690   8.941
   58        2.122   6.132   0.700   8.954
   59        2.106   6.090   0.841   9.037
   60        2.122   6.130   0.692   8.944
   61        2.104   6.090   0.812   9.005
--------------------------------------------------
tot         71.328 168.781   4.436 244.545
 

 total amount of memory used by VASP MPI-rank0   130729. kBytes
=======================================================================

   base      :      30000. kBytes
   nonl-proj :      59020. kBytes
   fftplans  :       5664. kBytes
   grid      :      32836. kBytes
   one-center:        948. kBytes
   wavefun   :       2261. kBytes
 
  
  
 General timing and accounting informations for this job:
 ========================================================
  
                  Total CPU time used (sec):       48.296
                            User time (sec):       47.580
                          System time (sec):        0.716
                         Elapsed time (sec):       51.395
  
                   Maximum memory used (kb):      208748.
                   Average memory used (kb):           0.
  
                          Minor page faults:        23593
                          Major page faults:            0
                 Voluntary context switches:         3989
