Li19Y6Cl35F1                            
   1.00000000000000     
    11.1583003997999999    0.0000000000000000    0.0000000000000000
    -5.5791501998999999    9.6633716093000004    0.0000000000000000
     0.0000000000000000    0.0000000000000000   11.9857997893999997
   Cl   F    Cl   Li   Y 
    12     1    23    19     6
Direct
  0.1212694448820670  0.8843290122095553  0.3750023999411951
  0.1203040482361573  0.2350407616904278  0.3788592198469587
  0.7636436438872636  0.8818021371318920  0.3769212193883362
  0.8856759485134305  0.1151631289547694  0.6098256748463555
  0.2263025956619202  0.1142815539508391  0.6151069124102619
  0.8806315912954759  0.7679793733716238  0.6102503978595308
  0.1000373166774580  0.8738453183645873  0.8835269552658929
  0.1248737313546968  0.2236976812360751  0.8801014084829220
  0.7856815974912976  0.9108432423142006  0.8809390542422051
  0.8845434550792106  0.1116785528242090  0.1283340026098045
  0.2358189123376775  0.1198530240527234  0.1274922395842211
  0.9046211435655636  0.7675124824878310  0.1274055548209745
  0.2301318620304968  0.7713482259050437  0.1410205774889945
  0.2273265944150253  0.4350201178314848  0.1317211875555913
  0.5707607087676223  0.7962019275491627  0.1269548106300036
  0.7850827374675120  0.2324692528109722  0.8738421367157514
  0.4318133060874842  0.2199886107562818  0.8634663302264656
  0.7525875974222984  0.5582254409184060  0.8636614602411612
  0.2203877976145492  0.7958781128866903  0.6276932614504034
  0.2097410847446071  0.4277630933704799  0.6374165333346156
  0.5640892932314756  0.7693614565336375  0.6337605053043731
  0.7863470407093729  0.2204100766343871  0.3658304393102227
  0.4411258721851112  0.2267891992056832  0.3710554268960706
  0.7771056913622587  0.5639665796209385  0.3721514116932525
  0.4527386834330471  0.5517295710512045  0.3744579938317898
  0.4544303558981468  0.9075325879371761  0.3739281928121372
  0.0968023932842925  0.5458624713775322  0.3754504825016838
  0.5392421474144129  0.4409544538901500  0.6281006386543879
  0.8966550536945306  0.4409384750538123  0.6265835623179044
  0.5414386761005758  0.1010168274902128  0.6278691343546043
  0.4310388546919839  0.5564802882248188  0.8872317883327696
  0.4411169556822543  0.8965618833679372  0.8844007551677109
  0.1045628655026150  0.5572061563863357  0.8873075871086016
  0.5527936759282781  0.4465499987017907  0.1259005387189021
  0.9018376762539688  0.4579458211537357  0.1269431731155919
  0.5594524392087763  0.1083845336098719  0.1259052485395600
  0.6841155204764462  0.0226339520371823  0.9887313963793076
  0.9526696685845835  0.6461482988628759  0.9709093187405955
  0.3379451257816370  0.3260275537929118  0.0052828676893810
  0.3495402864457233  0.9998888582874130  0.4884965951821130
  0.0000174788738789  0.3469180362711413  0.4940541440618134
  0.6446879029712136  0.6477640093109329  0.4973376933470988
  0.6337093395623015  0.9779451840408555  0.5182526157244141
  0.0058587119854678  0.6498803556616792  0.5012908875728499
  0.3482380124706594  0.3566644118966664  0.4929648607382617
  0.3345306482562123  0.9478838709381421  0.2145242691596678
  0.0110287850042212  0.3451205502618535  0.2346017122190389
  0.6468368089872172  0.6621151035192412  0.2401598738297039
  0.3200069937781578  0.3193078609766928  0.7485035871837411
  0.3005730824159798  0.9914826887616854  0.7662565713558109
  0.9889287818784211  0.2931345549121289  0.7661031645605192
  0.7106618696191944  0.7206580828091020  0.7616859887171756
  0.6531213064082309  0.9932122112981716  0.2549803266825137
  0.0663268079959849  0.6771637024100343  0.2327906257346584
  0.3453379138577262  0.3520999208583220  0.2544725581338341
  0.0030495585164374  0.9968485581429505  0.0112703790038182
  0.9973509463596457  0.9962263767278401  0.4912849143403619
  0.6674876640982603  0.3317597683463802  0.7459524103239801
  0.3261009529979262  0.6726576232143557  0.7477829149846400
  0.6713409977350935  0.3384298782642290  0.2493673918411545
  0.3236925158264796  0.6785876305407541  0.0297147348923374
 
  0.00000000E+00  0.00000000E+00  0.00000000E+00
  0.00000000E+00  0.00000000E+00  0.00000000E+00
  0.00000000E+00  0.00000000E+00  0.00000000E+00
  0.00000000E+00  0.00000000E+00  0.00000000E+00
  0.00000000E+00  0.00000000E+00  0.00000000E+00
  0.00000000E+00  0.00000000E+00  0.00000000E+00
  0.00000000E+00  0.00000000E+00  0.00000000E+00
  0.00000000E+00  0.00000000E+00  0.00000000E+00
  0.00000000E+00  0.00000000E+00  0.00000000E+00
  0.00000000E+00  0.00000000E+00  0.00000000E+00
  0.00000000E+00  0.00000000E+00  0.00000000E+00
  0.00000000E+00  0.00000000E+00  0.00000000E+00
  0.00000000E+00  0.00000000E+00  0.00000000E+00
  0.00000000E+00  0.00000000E+00  0.00000000E+00
  0.00000000E+00  0.00000000E+00  0.00000000E+00
  0.00000000E+00  0.00000000E+00  0.00000000E+00
  0.00000000E+00  0.00000000E+00  0.00000000E+00
  0.00000000E+00  0.00000000E+00  0.00000000E+00
  0.00000000E+00  0.00000000E+00  0.00000000E+00
  0.00000000E+00  0.00000000E+00  0.00000000E+00
  0.00000000E+00  0.00000000E+00  0.00000000E+00
  0.00000000E+00  0.00000000E+00  0.00000000E+00
  0.00000000E+00  0.00000000E+00  0.00000000E+00
  0.00000000E+00  0.00000000E+00  0.00000000E+00
  0.00000000E+00  0.00000000E+00  0.00000000E+00
  0.00000000E+00  0.00000000E+00  0.00000000E+00
  0.00000000E+00  0.00000000E+00  0.00000000E+00
  0.00000000E+00  0.00000000E+00  0.00000000E+00
  0.00000000E+00  0.00000000E+00  0.00000000E+00
  0.00000000E+00  0.00000000E+00  0.00000000E+00
  0.00000000E+00  0.00000000E+00  0.00000000E+00
  0.00000000E+00  0.00000000E+00  0.00000000E+00
  0.00000000E+00  0.00000000E+00  0.00000000E+00
  0.00000000E+00  0.00000000E+00  0.00000000E+00
  0.00000000E+00  0.00000000E+00  0.00000000E+00
  0.00000000E+00  0.00000000E+00  0.00000000E+00
  0.00000000E+00  0.00000000E+00  0.00000000E+00
  0.00000000E+00  0.00000000E+00  0.00000000E+00
  0.00000000E+00  0.00000000E+00  0.00000000E+00
  0.00000000E+00  0.00000000E+00  0.00000000E+00
  0.00000000E+00  0.00000000E+00  0.00000000E+00
  0.00000000E+00  0.00000000E+00  0.00000000E+00
  0.00000000E+00  0.00000000E+00  0.00000000E+00
  0.00000000E+00  0.00000000E+00  0.00000000E+00
  0.00000000E+00  0.00000000E+00  0.00000000E+00
  0.00000000E+00  0.00000000E+00  0.00000000E+00
  0.00000000E+00  0.00000000E+00  0.00000000E+00
  0.00000000E+00  0.00000000E+00  0.00000000E+00
  0.00000000E+00  0.00000000E+00  0.00000000E+00
  0.00000000E+00  0.00000000E+00  0.00000000E+00
  0.00000000E+00  0.00000000E+00  0.00000000E+00
  0.00000000E+00  0.00000000E+00  0.00000000E+00
  0.00000000E+00  0.00000000E+00  0.00000000E+00
  0.00000000E+00  0.00000000E+00  0.00000000E+00
  0.00000000E+00  0.00000000E+00  0.00000000E+00
  0.00000000E+00  0.00000000E+00  0.00000000E+00
  0.00000000E+00  0.00000000E+00  0.00000000E+00
  0.00000000E+00  0.00000000E+00  0.00000000E+00
  0.00000000E+00  0.00000000E+00  0.00000000E+00
  0.00000000E+00  0.00000000E+00  0.00000000E+00
  0.00000000E+00  0.00000000E+00  0.00000000E+00
