Li3ErCl6                                
   1.00000000000000     
    11.2350816726999998    0.0000000000000000    0.0000000000000000
    -5.6175304715000003    9.7298721263000001    0.0000000000000000
     0.0001057444000000   -0.0000610516000000   12.2173328393999991
  Cl/9f1b6e6ed42  Er_3/13ccedc37  Li/3d9d9bfd1dd
              35               6              17
Direct
  0.1232150860396119  0.8902813158632689  0.3932100429602633
  0.1044773779562130  0.2127851333311370  0.3794823315264011
  0.8661770010184061  0.0945901140811311  0.5860662466203418
  0.2424840514312824  0.1352139887556744  0.6282239789551163
  0.8884761590136391  0.7794381967987982  0.6101094230162240
  0.1210283749974323  0.8899502287625115  0.8911982229335920
  0.1074822093398900  0.2285145793583967  0.8877953592569220
  0.7696723251307288  0.8776072537203157  0.8875710357566411
  0.8759246015917213  0.1082031305906285  0.1100294518771327
  0.2286681856098954  0.1219011420719091  0.1119545339525698
  0.8905127724868710  0.7708400440585736  0.1124146717597584
  0.2209017384412461  0.7753764876207803  0.1463010421300988
  0.2276176752328021  0.4438112824288055  0.1371095999598381
  0.5620249193953261  0.7886433500426401  0.1448518292088237
  0.7849710175089707  0.2222939363584697  0.8553795875324187
  0.4463694626743264  0.2120686350178750  0.8663508305965970
  0.7723495857408730  0.5569429722591818  0.8597826089202617
  0.2250799353709541  0.7821934314464103  0.6437403380467549
  0.2086535995263424  0.4413213516839765  0.6410866522953124
  0.5481558917327642  0.7625231623089301  0.6427540020170217
  0.7693201330637319  0.2145389695065949  0.3509387822496840
  0.4473564537756000  0.2303769462087572  0.3588750487615278
  0.7983656131291150  0.5612549138405772  0.3590677245908336
  0.4259246899913245  0.5319719257177309  0.3782917267215773
  0.4740443216935114  0.8901684598969797  0.3842986361462852
  0.1115452120358523  0.5648526319260956  0.3825893901012732
  0.5718696082155077  0.4575035690472104  0.6241446986495011
  0.8882056191836573  0.4255651155719106  0.6181198947230129
  0.5332216431458012  0.1062118504579150  0.6199413646172865
  0.4522957151800200  0.5616573558201360  0.8834766905097341
  0.4341669268493526  0.8894313550705658  0.8839379523628645
  0.1032317255397401  0.5409243456933495  0.8827955211510502
  0.5435516271926061  0.4400253474420471  0.1182772173419644
  0.8944093475319976  0.4585467502804302  0.1144237889561005
  0.5648737083422607  0.1166637864611225  0.1143698203167253
 -0.0013994194908130 -0.0004941047835738  0.0004350102507836
  0.0311297696740163  0.0124450309818330  0.5166995312322877
  0.3354527307492063  0.6611042392737909  0.2619863466430775
  0.6654746849628058  0.3329537131452996  0.7421576488130279
  0.3296685510437002  0.6639290494357498  0.7639337066158826
  0.6713971019053456  0.3458644363554159  0.2392468375323396
  0.3476333863200554  0.3316839463652170  0.9717716760965600
  0.6693767082983553  0.0145319364746460  0.9671662191147299
  0.9800137296865304  0.6517140579586650  0.9709965731246243
  0.6507817127981623  0.6693265806092351  0.0252080299864519
  0.3308472901099169  0.9860310440077671  0.0322270721818133
  0.0152027006525721  0.3461149071477129  0.0291526730289539
  0.3571334231644557  0.3825979818087298  0.5378216625858927
  0.6234671306021523  0.9708315719583905  0.5523032475317974
 -0.0008118934970485  0.6573561695955368  0.5250757064643237
  0.3671403716647839  0.0182600639974973  0.4551621722635016
  0.9771051724740656  0.3240499789362495  0.4595249198432834
  0.3266133202908185  0.9944996702373344  0.7559935472160132
  0.0006472201266792  0.3374891388001305  0.7543654687949694
  0.6809858516722195  0.6726768870672913  0.7346862262214513
  0.6548590391559306  0.0129608284223354  0.2343078552957737
  0.0016171207480673  0.6649804893172089  0.2473299743622223
  0.3207358027786508  0.3247803963866994  0.2543487702787158
 
  0.00000000E+00  0.00000000E+00  0.00000000E+00
  0.00000000E+00  0.00000000E+00  0.00000000E+00
  0.00000000E+00  0.00000000E+00  0.00000000E+00
  0.00000000E+00  0.00000000E+00  0.00000000E+00
  0.00000000E+00  0.00000000E+00  0.00000000E+00
  0.00000000E+00  0.00000000E+00  0.00000000E+00
  0.00000000E+00  0.00000000E+00  0.00000000E+00
  0.00000000E+00  0.00000000E+00  0.00000000E+00
  0.00000000E+00  0.00000000E+00  0.00000000E+00
  0.00000000E+00  0.00000000E+00  0.00000000E+00
  0.00000000E+00  0.00000000E+00  0.00000000E+00
  0.00000000E+00  0.00000000E+00  0.00000000E+00
  0.00000000E+00  0.00000000E+00  0.00000000E+00
  0.00000000E+00  0.00000000E+00  0.00000000E+00
  0.00000000E+00  0.00000000E+00  0.00000000E+00
  0.00000000E+00  0.00000000E+00  0.00000000E+00
  0.00000000E+00  0.00000000E+00  0.00000000E+00
  0.00000000E+00  0.00000000E+00  0.00000000E+00
  0.00000000E+00  0.00000000E+00  0.00000000E+00
  0.00000000E+00  0.00000000E+00  0.00000000E+00
  0.00000000E+00  0.00000000E+00  0.00000000E+00
  0.00000000E+00  0.00000000E+00  0.00000000E+00
  0.00000000E+00  0.00000000E+00  0.00000000E+00
  0.00000000E+00  0.00000000E+00  0.00000000E+00
  0.00000000E+00  0.00000000E+00  0.00000000E+00
  0.00000000E+00  0.00000000E+00  0.00000000E+00
  0.00000000E+00  0.00000000E+00  0.00000000E+00
  0.00000000E+00  0.00000000E+00  0.00000000E+00
  0.00000000E+00  0.00000000E+00  0.00000000E+00
  0.00000000E+00  0.00000000E+00  0.00000000E+00
  0.00000000E+00  0.00000000E+00  0.00000000E+00
  0.00000000E+00  0.00000000E+00  0.00000000E+00
  0.00000000E+00  0.00000000E+00  0.00000000E+00
  0.00000000E+00  0.00000000E+00  0.00000000E+00
  0.00000000E+00  0.00000000E+00  0.00000000E+00
  0.00000000E+00  0.00000000E+00  0.00000000E+00
  0.00000000E+00  0.00000000E+00  0.00000000E+00
  0.00000000E+00  0.00000000E+00  0.00000000E+00
  0.00000000E+00  0.00000000E+00  0.00000000E+00
  0.00000000E+00  0.00000000E+00  0.00000000E+00
  0.00000000E+00  0.00000000E+00  0.00000000E+00
  0.00000000E+00  0.00000000E+00  0.00000000E+00
  0.00000000E+00  0.00000000E+00  0.00000000E+00
  0.00000000E+00  0.00000000E+00  0.00000000E+00
  0.00000000E+00  0.00000000E+00  0.00000000E+00
  0.00000000E+00  0.00000000E+00  0.00000000E+00
  0.00000000E+00  0.00000000E+00  0.00000000E+00
  0.00000000E+00  0.00000000E+00  0.00000000E+00
  0.00000000E+00  0.00000000E+00  0.00000000E+00
  0.00000000E+00  0.00000000E+00  0.00000000E+00
  0.00000000E+00  0.00000000E+00  0.00000000E+00
  0.00000000E+00  0.00000000E+00  0.00000000E+00
  0.00000000E+00  0.00000000E+00  0.00000000E+00
  0.00000000E+00  0.00000000E+00  0.00000000E+00
  0.00000000E+00  0.00000000E+00  0.00000000E+00
  0.00000000E+00  0.00000000E+00  0.00000000E+00
  0.00000000E+00  0.00000000E+00  0.00000000E+00
  0.00000000E+00  0.00000000E+00  0.00000000E+00
