Li3InCl6                                
   1.00000000000000     
    13.4590179104963532    0.0000000000000000   -0.2730850081025033
     0.0000000000000000   11.4560718765941516    0.0000000000000000
    -4.7917770538581186    0.0000000000000000   12.1676401793538442
   Cl   In   Li
    48     8    24
Direct
  0.1299410155247559  0.1691418512991334  0.1568871919267802
  0.8664387468139122  0.1681813448658138  0.8356597952178240
  0.8832814886534591  0.8168110708319375  0.8548430812511023
  0.1188026413728159  0.8168126348103563  0.1413478045038992
  0.3632932764185587  0.6515631486598823  0.1413713322973051
  0.1177618653413641  0.6608609647957143  0.8800467858733471
  0.1327774572914094  0.3573512892043557  0.8592828676140473
  0.3633457483347459  0.3472619113424057  0.1369866150525592
  0.1160074034675392  0.1511941378117603  0.6367078449230537
  0.8843435869749234  0.1503215309316929  0.3585738346999288
  0.8780435568603935  0.8392594931218001  0.3591314872523121
  0.1232097981615969  0.8401635622643229  0.6372587563298692
  0.3774438535812655  0.6520702113240265  0.6297766546245694
  0.1289466490939430  0.6463362921462610  0.3679842079639409
  0.1297799578847224  0.3430575541437567  0.3823499398170696
  0.3697760016936202  0.3510991394059179  0.6449798621960332
  0.6193163347472953  0.1549460644245591  0.1341862726941802
  0.3798236581105002  0.1543659326511149  0.8605331362029117
  0.3856983961832238  0.8489204828879482  0.8606970109787139
  0.6158541189923311  0.8496762229426881  0.1350046166724474
  0.8840068418328773  0.6606334683214362  0.1154553548547620
  0.6374125630332882  0.6533376515421132  0.8535159652174084
  0.6362505326332530  0.3490123460010301  0.8576544072301410
  0.8661347285940900  0.3574603924054896  0.1354191331681221
  0.6016795747597601  0.1604831463778321  0.6322283462630131
  0.3941256407269452  0.1572576668758055  0.3593711177444631
  0.3786135396947225  0.8507176263839685  0.3516259417367349
  0.6244801662881961  0.8544011915115461  0.6443198237420109
  0.8714670996849367  0.6468856436151642  0.6270498067543564
  0.6224313692351425  0.6531518410842756  0.3654022873004081
  0.6296049505427196  0.3521560318513752  0.3499127001278702
  0.8692206810559835  0.3435843147356233  0.6126375861267368
  0.1130244352614511 -0.0120837326935033  0.3829452963438731
  0.8877178012473338  0.9881785511263720  0.6124604303462907
  0.3565593633288328  0.4904955430701813  0.3766595953017222
  0.1402493847704853  0.5149715525078888  0.6268738474477841
  0.1246119550285607  0.9911818561354494  0.8790858652176399
  0.8754314653765694  0.9893912532729593  0.1167113526733441
  0.3596839026938313  0.5227267867869505  0.8820769864410981
  0.1229701118471162  0.5096987872274256  0.1093417903166215
  0.6191066910050342  0.9948763173978649  0.3888452981343140
  0.3810520063212168  0.9921315779750399  0.6061175565715581
  0.8591781509973105  0.5153676711941659  0.3679007366007964
  0.6430687639926089  0.4924709054993568  0.6183753008353928
  0.6112795980768959  0.0058440928209636  0.8765674104577256
  0.3889587270890187  0.0035943435174019  0.1180511564441540
  0.8774793984935629  0.5099756993636372  0.8855800872540094
  0.6401976422373525  0.5249339857082055  0.1120440150455147
  0.2553480720511159  0.4974566898466319  0.0026511420897358
  0.0004306940520233  0.0003928502859087  0.4978055974937882
  0.2503754496008186  0.4987897151182915  0.5025860722242581
  0.5003171599016113  0.0048526426470220 -0.0026487886365088
  0.7451660361895351  0.4986544349960422  0.9921266942725305
  0.4993958067138137 -0.0040027883511074  0.4968057138812782
  0.7493184173515375  0.4996957655802472  0.4925396891298796
  0.0008793397097207  0.6813552688608677 -0.0022868567307088
  0.9991889050197641  0.1222094850467485  0.2260807623673063
  0.0132335983786630  0.8629464945897209  0.7510900924302933
  0.2516897449964312  0.6654369879349938  0.2627268677600485
  0.2548283614325086  0.3618889844413908  0.7562484416369141
 -0.0002755207504683  0.1231263378306341  0.7695160731914372
  0.9875358488577197  0.8618505985421769  0.2447848641697578
  0.2611962693749386  0.6783271633233743  0.7328254625707742
  0.2455448333425292  0.3040525922956713  0.2734926799402095
  0.5176192048604912  0.1451454644415507  0.2571070703092994
  0.4996317906530385  0.8570402639909038  0.7473906628947405
  0.7389639841309881  0.6795035674908421  0.2627512126960210
  0.7523659949663736  0.3056813098998457  0.7214680104045860
  0.4800500377295563  0.1448667890866144  0.7359590375275795
  0.5030675992982291  0.8570740119447890  0.2493204317681257
  0.7500108813998777  0.6660602309394588  0.7335959570620869
  0.7432817414815709  0.3644198167832845  0.2374157707860625
  0.2583425414813673  0.0267497139421872  0.2144689483150749
  0.4815920062099115  0.4981298807978791  0.2652788602152266
  0.2255193192925942  0.0026497016651844  0.7719967834712738
  0.5177562122064014  0.4989738858413255  0.7301483175915549
  0.7747394653138796  0.0015245731182795  0.2240141347870257
  0.9956879825769188  0.4870267894149094  0.2803095864932285
  0.7365744784459172  0.0278652435344538  0.7721427898470450
  0.0037814443490233  0.4870829098771869  0.7140109374298439
 
  0.00000000E+00  0.00000000E+00  0.00000000E+00
  0.00000000E+00  0.00000000E+00  0.00000000E+00
  0.00000000E+00  0.00000000E+00  0.00000000E+00
  0.00000000E+00  0.00000000E+00  0.00000000E+00
  0.00000000E+00  0.00000000E+00  0.00000000E+00
  0.00000000E+00  0.00000000E+00  0.00000000E+00
  0.00000000E+00  0.00000000E+00  0.00000000E+00
  0.00000000E+00  0.00000000E+00  0.00000000E+00
  0.00000000E+00  0.00000000E+00  0.00000000E+00
  0.00000000E+00  0.00000000E+00  0.00000000E+00
  0.00000000E+00  0.00000000E+00  0.00000000E+00
  0.00000000E+00  0.00000000E+00  0.00000000E+00
  0.00000000E+00  0.00000000E+00  0.00000000E+00
  0.00000000E+00  0.00000000E+00  0.00000000E+00
  0.00000000E+00  0.00000000E+00  0.00000000E+00
  0.00000000E+00  0.00000000E+00  0.00000000E+00
  0.00000000E+00  0.00000000E+00  0.00000000E+00
  0.00000000E+00  0.00000000E+00  0.00000000E+00
  0.00000000E+00  0.00000000E+00  0.00000000E+00
  0.00000000E+00  0.00000000E+00  0.00000000E+00
  0.00000000E+00  0.00000000E+00  0.00000000E+00
  0.00000000E+00  0.00000000E+00  0.00000000E+00
  0.00000000E+00  0.00000000E+00  0.00000000E+00
  0.00000000E+00  0.00000000E+00  0.00000000E+00
  0.00000000E+00  0.00000000E+00  0.00000000E+00
  0.00000000E+00  0.00000000E+00  0.00000000E+00
  0.00000000E+00  0.00000000E+00  0.00000000E+00
  0.00000000E+00  0.00000000E+00  0.00000000E+00
  0.00000000E+00  0.00000000E+00  0.00000000E+00
  0.00000000E+00  0.00000000E+00  0.00000000E+00
  0.00000000E+00  0.00000000E+00  0.00000000E+00
  0.00000000E+00  0.00000000E+00  0.00000000E+00
  0.00000000E+00  0.00000000E+00  0.00000000E+00
  0.00000000E+00  0.00000000E+00  0.00000000E+00
  0.00000000E+00  0.00000000E+00  0.00000000E+00
  0.00000000E+00  0.00000000E+00  0.00000000E+00
  0.00000000E+00  0.00000000E+00  0.00000000E+00
  0.00000000E+00  0.00000000E+00  0.00000000E+00
  0.00000000E+00  0.00000000E+00  0.00000000E+00
  0.00000000E+00  0.00000000E+00  0.00000000E+00
  0.00000000E+00  0.00000000E+00  0.00000000E+00
  0.00000000E+00  0.00000000E+00  0.00000000E+00
  0.00000000E+00  0.00000000E+00  0.00000000E+00
  0.00000000E+00  0.00000000E+00  0.00000000E+00
  0.00000000E+00  0.00000000E+00  0.00000000E+00
  0.00000000E+00  0.00000000E+00  0.00000000E+00
  0.00000000E+00  0.00000000E+00  0.00000000E+00
  0.00000000E+00  0.00000000E+00  0.00000000E+00
  0.00000000E+00  0.00000000E+00  0.00000000E+00
  0.00000000E+00  0.00000000E+00  0.00000000E+00
  0.00000000E+00  0.00000000E+00  0.00000000E+00
  0.00000000E+00  0.00000000E+00  0.00000000E+00
  0.00000000E+00  0.00000000E+00  0.00000000E+00
  0.00000000E+00  0.00000000E+00  0.00000000E+00
  0.00000000E+00  0.00000000E+00  0.00000000E+00
  0.00000000E+00  0.00000000E+00  0.00000000E+00
  0.00000000E+00  0.00000000E+00  0.00000000E+00
  0.00000000E+00  0.00000000E+00  0.00000000E+00
  0.00000000E+00  0.00000000E+00  0.00000000E+00
  0.00000000E+00  0.00000000E+00  0.00000000E+00
  0.00000000E+00  0.00000000E+00  0.00000000E+00
  0.00000000E+00  0.00000000E+00  0.00000000E+00
  0.00000000E+00  0.00000000E+00  0.00000000E+00
  0.00000000E+00  0.00000000E+00  0.00000000E+00
  0.00000000E+00  0.00000000E+00  0.00000000E+00
  0.00000000E+00  0.00000000E+00  0.00000000E+00
  0.00000000E+00  0.00000000E+00  0.00000000E+00
  0.00000000E+00  0.00000000E+00  0.00000000E+00
  0.00000000E+00  0.00000000E+00  0.00000000E+00
  0.00000000E+00  0.00000000E+00  0.00000000E+00
  0.00000000E+00  0.00000000E+00  0.00000000E+00
  0.00000000E+00  0.00000000E+00  0.00000000E+00
  0.00000000E+00  0.00000000E+00  0.00000000E+00
  0.00000000E+00  0.00000000E+00  0.00000000E+00
  0.00000000E+00  0.00000000E+00  0.00000000E+00
  0.00000000E+00  0.00000000E+00  0.00000000E+00
  0.00000000E+00  0.00000000E+00  0.00000000E+00
  0.00000000E+00  0.00000000E+00  0.00000000E+00
  0.00000000E+00  0.00000000E+00  0.00000000E+00
  0.00000000E+00  0.00000000E+00  0.00000000E+00
