Li19Y6Cl35F1                            
   1.00000000000000     
    11.2812370965894697   -0.0503183525627214    0.1813490063409068
    -5.6834769212174070    9.8063723171978214   -0.1494277293602848
     0.1955471338050410   -0.0751650938189226   12.4681198843518484
   Cl   F    Li   Y 
    35     1    18     6
Direct
  0.1120398107466139  0.8707581139684387  0.3747093773899479
  0.1187507477284761  0.2333690159762369  0.3790028626840019
  0.7721448793247406  0.8741492459617632  0.3694972008499899
  0.8748732310104543  0.1108131611115013  0.5952218367791509
  0.2152741283814482  0.1215225993864888  0.6105434728372866
  0.8792600841108188  0.7730611182444710  0.6006081141028177
  0.1043512500495372  0.8923675426271803  0.8684991816445261
  0.1248191632621036  0.2306267993221063  0.8837193354924840
  0.7920176695199895  0.9251996851486332  0.8805590854070797
  0.8843022661392899  0.1134726070261639  0.1228990838834988
  0.2316783963127038  0.1345122173411484  0.1180558341359873
  0.9173065839953732  0.7742452468336657  0.1114669114461563
  0.2310034943520672  0.4459540401512597  0.1385111218350614
  0.5753640670604347  0.7849524052887700  0.1327421022353145
  0.7901729570607245  0.2467712529807451  0.8629485061023596
  0.4303333830685996  0.2306792513196182  0.8561998614723333
  0.7598974061029055  0.5681276302356615  0.8533805665558013
  0.2199086251574361  0.7780516892539097  0.6401410467145039
  0.1967303433111886  0.4286524860164988  0.6594553982133216
  0.5625816493265804  0.7697850436985827  0.6431613619064379
  0.7856767870016099  0.2239671826927071  0.3545259501342733
  0.4324595144416574  0.2093364429977133  0.3531292147233003
  0.7728620510714785  0.5583655896635135  0.3581325685150681
  0.4531097323186188  0.5345830324949171  0.3811508318894680
  0.4726645839791668  0.8995023423399148  0.3779523425448143
  0.0912834653502062  0.5429405328135719  0.3755393582529815
  0.5378542813153070  0.4403624582308719  0.6275956638258070
  0.8818420657117069  0.4406485442487544  0.6115912806661397
  0.5315447097605116  0.1005979810125698  0.6401310589392465
  0.4255837457553572  0.5667849327488579  0.8958112071886473
  0.4387504784479856  0.8784997165375659  0.8998350950693599
  0.1286177833524366  0.5863559198394377  0.9104499852085746
  0.5536003949852468  0.4427860511751002  0.1264820988523493
  0.9023076866399665  0.4567402206620100  0.1294182882022648
  0.5586609687604674  0.0962058109601411  0.1295347288021726
  0.2365542287466322  0.7702800530943141  0.1671438758408021
  0.6998352573099970  0.0520694970342633  0.9866759285699930
  0.9630450428896465  0.6702830029424992  0.9542869154720395
  0.3470574985657747  0.3321384673652366  0.0006875930182116
 -0.0216587922474678  0.3406540752378284  0.4831219044593346
  0.6498323787016750  0.6427603506993661  0.4929068743468003
  0.6054111791264910  0.9730963112124186  0.5285880512947545
  0.0234474158500800  0.6563097004514816  0.5088489595433172
  0.3735821989393043  0.3316274480754057  0.4842613139682974
  0.3351846212136572  0.9410761385238062  0.2714103879063688
  0.0049844349821345  0.3521682000263897  0.2358637096727643
  0.6442005797740775  0.6488107422354399  0.2484876274814190
  0.3101406497701545  0.3117004063078010  0.7445075844851492
  0.2926975035812548  0.0020933976445488  0.7292703838614755
  0.9711961490400578  0.2421439389317043  0.7603321167626921
  0.7340767399307555  0.7395680642103778  0.7604124062365782
  0.6608474923114211  0.9888436391095140  0.2591319754024696
  0.0474220773960703  0.6728905348623361  0.2428694349571403
  0.3397248565510304  0.3433290266228041  0.2528876964320589
  0.0070002063784830  0.0039786481992284  0.0067760556791050
 -0.0014368277840400  0.9968904068247179  0.4803848602989539
  0.6660337494091991  0.3367293268928309  0.7409944587648116
  0.3285354956282283  0.6703478706587531  0.7520295705743633
  0.6669089830422178  0.3310774074336487  0.2407726370748737
  0.3313498199799675  0.6898128420928019  0.0593416933936767
 
  0.00000000E+00  0.00000000E+00  0.00000000E+00
  0.00000000E+00  0.00000000E+00  0.00000000E+00
  0.00000000E+00  0.00000000E+00  0.00000000E+00
  0.00000000E+00  0.00000000E+00  0.00000000E+00
  0.00000000E+00  0.00000000E+00  0.00000000E+00
  0.00000000E+00  0.00000000E+00  0.00000000E+00
  0.00000000E+00  0.00000000E+00  0.00000000E+00
  0.00000000E+00  0.00000000E+00  0.00000000E+00
  0.00000000E+00  0.00000000E+00  0.00000000E+00
  0.00000000E+00  0.00000000E+00  0.00000000E+00
  0.00000000E+00  0.00000000E+00  0.00000000E+00
  0.00000000E+00  0.00000000E+00  0.00000000E+00
  0.00000000E+00  0.00000000E+00  0.00000000E+00
  0.00000000E+00  0.00000000E+00  0.00000000E+00
  0.00000000E+00  0.00000000E+00  0.00000000E+00
  0.00000000E+00  0.00000000E+00  0.00000000E+00
  0.00000000E+00  0.00000000E+00  0.00000000E+00
  0.00000000E+00  0.00000000E+00  0.00000000E+00
  0.00000000E+00  0.00000000E+00  0.00000000E+00
  0.00000000E+00  0.00000000E+00  0.00000000E+00
  0.00000000E+00  0.00000000E+00  0.00000000E+00
  0.00000000E+00  0.00000000E+00  0.00000000E+00
  0.00000000E+00  0.00000000E+00  0.00000000E+00
  0.00000000E+00  0.00000000E+00  0.00000000E+00
  0.00000000E+00  0.00000000E+00  0.00000000E+00
  0.00000000E+00  0.00000000E+00  0.00000000E+00
  0.00000000E+00  0.00000000E+00  0.00000000E+00
  0.00000000E+00  0.00000000E+00  0.00000000E+00
  0.00000000E+00  0.00000000E+00  0.00000000E+00
  0.00000000E+00  0.00000000E+00  0.00000000E+00
  0.00000000E+00  0.00000000E+00  0.00000000E+00
  0.00000000E+00  0.00000000E+00  0.00000000E+00
  0.00000000E+00  0.00000000E+00  0.00000000E+00
  0.00000000E+00  0.00000000E+00  0.00000000E+00
  0.00000000E+00  0.00000000E+00  0.00000000E+00
  0.00000000E+00  0.00000000E+00  0.00000000E+00
  0.00000000E+00  0.00000000E+00  0.00000000E+00
  0.00000000E+00  0.00000000E+00  0.00000000E+00
  0.00000000E+00  0.00000000E+00  0.00000000E+00
  0.00000000E+00  0.00000000E+00  0.00000000E+00
  0.00000000E+00  0.00000000E+00  0.00000000E+00
  0.00000000E+00  0.00000000E+00  0.00000000E+00
  0.00000000E+00  0.00000000E+00  0.00000000E+00
  0.00000000E+00  0.00000000E+00  0.00000000E+00
  0.00000000E+00  0.00000000E+00  0.00000000E+00
  0.00000000E+00  0.00000000E+00  0.00000000E+00
  0.00000000E+00  0.00000000E+00  0.00000000E+00
  0.00000000E+00  0.00000000E+00  0.00000000E+00
  0.00000000E+00  0.00000000E+00  0.00000000E+00
  0.00000000E+00  0.00000000E+00  0.00000000E+00
  0.00000000E+00  0.00000000E+00  0.00000000E+00
  0.00000000E+00  0.00000000E+00  0.00000000E+00
  0.00000000E+00  0.00000000E+00  0.00000000E+00
  0.00000000E+00  0.00000000E+00  0.00000000E+00
  0.00000000E+00  0.00000000E+00  0.00000000E+00
  0.00000000E+00  0.00000000E+00  0.00000000E+00
  0.00000000E+00  0.00000000E+00  0.00000000E+00
  0.00000000E+00  0.00000000E+00  0.00000000E+00
  0.00000000E+00  0.00000000E+00  0.00000000E+00
  0.00000000E+00  0.00000000E+00  0.00000000E+00
