Li3ErCl6                                
   1.00000000000000     
    11.2350813304671959    0.0000054648476179    0.0000502246817514
    -5.6175359325367387    9.7298685781292704   -0.0000502246817507
     0.0000506793673368   -0.0000292597463735   12.2173329189681521
   Cl   Er   Li
    36     6    18
Direct
  0.1111871328870043  0.8800644739595077  0.3941746599742652
  0.1087025425339367  0.2256091910472131  0.3845492443808419
  0.7706003641595064  0.8928544271589329  0.3864412426491508
  0.8858133871502747  0.1173167103743372  0.6138213729608160
  0.2291501388436343  0.1194537745956129  0.6133004994716099
  0.8743849511066550  0.7675882379448939  0.6084257710548069
  0.1168792093809047  0.8861370147482311  0.8830453629553076
  0.1180103666693865  0.2290098666614799  0.8819599137160022
  0.7669128963334165  0.8736994122584788  0.8902663837120821
  0.8808930431451080  0.1121498670437410  0.1034757648520584
  0.2274625213404566  0.1113992603538335  0.1110096822829006
  0.8946990669545269  0.7727715006310156  0.1115946370370659
  0.2145478915481189  0.7694876866452490  0.1419606802017787
  0.2240817400940208  0.4450535940220698  0.1338264663501359
  0.5553516662335488  0.7864808398857304  0.1358892193944811
  0.7842644540021686  0.2287253951451542  0.8594965346929636
  0.4403151320649070  0.2203910905587008  0.8509175669132467
  0.7720941981821974  0.5554957423742258  0.8548901677089463
  0.2288871862583449  0.7849690304190752  0.6380887275579555
  0.2193312933351202  0.4413355133338953  0.6455431926653086
  0.5556403599714184  0.7718908903782470  0.6430344537065776
  0.7683077767081383  0.2145716928663793  0.3557506542271062
  0.4437816668719400  0.2227034775888373  0.3624651493584176
  0.7855877246532513  0.5556492845705462  0.3617381196261603
  0.4444073680335269  0.5558046503203981  0.3850303677783229
  0.4583514668675504  0.8903698227836682  0.3776817201557802
  0.1091673619163855  0.5638901455998633  0.3803752168956808
  0.5531651588919637  0.4478885912265985  0.6224183870143692
  0.8933900395034133  0.4340973494730347  0.6152493862455672
  0.5417357349005736  0.1048586474975750  0.6178696369207334
  0.4467355165903519  0.5516442483103613  0.8742172891025797
  0.4340938950574499  0.8938844773776511  0.8820107706622077
  0.1048065068600037  0.5423494083949700  0.8798435567099062
  0.5564369000528113  0.4463016687646364  0.1129022130477435
  0.8903786720207917  0.4589716439277484  0.1200833664493157
  0.5645573014584800  0.1103050247890057  0.1163185939404393
  0.0038426008988659  0.0000958566033335 -0.0026554681222205
 -0.0015484279868021  0.0029141641937272  0.4996331173736791
  0.3338102566043001  0.6609368585495508  0.2590255048027527
  0.6693451209945861  0.3324905497536159  0.7354140911029255
  0.3321029123968630  0.6693816444523789  0.7621470274017375
  0.6607648877023125  0.3344981030297985  0.2384579628976290
  0.6692303227036236  0.0158699818887514  0.9715352119853933
  0.9805780901367689  0.6505746732524615  0.9692806970246305
  0.6607594506941923  0.6738648875388210  0.0332734219292970
  0.3284686744828189  0.9792326337089710  0.0363162259962970
  0.0115535996571945  0.3548181451889058  0.0344123331741683
  0.3341140667003705  0.3345290472140197  0.7469948080824093
  0.6491728764772075  0.9798870515843253  0.5283621469380939
  0.0154608081320763  0.6692481946801265  0.5262721879986025
  0.6714661648122831  0.6584709919245444  0.4666662462051838
  0.3539071167492544  0.0111172031600397  0.4636572978863959
  0.9782762397057967  0.3277910236377065  0.4614037765744556
  0.3257271919518603 -0.0015262297352204  0.7494813548727755
 -0.0015697801196224  0.3258956854973512  0.7483212639855422
  0.6819836762049157  0.6819782920609957  0.7492226799982831
  0.6721528888820295  0.0011874531254944  0.2475711732709682
  0.0007329436912524  0.6726097084341213  0.2502500177169549
  0.3326584248524942  0.3410133118755699  0.0328185285273306
  0.3374540211387686  0.3300670923926457  0.4605348381897885
 
  0.00000000E+00  0.00000000E+00  0.00000000E+00
  0.00000000E+00  0.00000000E+00  0.00000000E+00
  0.00000000E+00  0.00000000E+00  0.00000000E+00
  0.00000000E+00  0.00000000E+00  0.00000000E+00
  0.00000000E+00  0.00000000E+00  0.00000000E+00
  0.00000000E+00  0.00000000E+00  0.00000000E+00
  0.00000000E+00  0.00000000E+00  0.00000000E+00
  0.00000000E+00  0.00000000E+00  0.00000000E+00
  0.00000000E+00  0.00000000E+00  0.00000000E+00
  0.00000000E+00  0.00000000E+00  0.00000000E+00
  0.00000000E+00  0.00000000E+00  0.00000000E+00
  0.00000000E+00  0.00000000E+00  0.00000000E+00
  0.00000000E+00  0.00000000E+00  0.00000000E+00
  0.00000000E+00  0.00000000E+00  0.00000000E+00
  0.00000000E+00  0.00000000E+00  0.00000000E+00
  0.00000000E+00  0.00000000E+00  0.00000000E+00
  0.00000000E+00  0.00000000E+00  0.00000000E+00
  0.00000000E+00  0.00000000E+00  0.00000000E+00
  0.00000000E+00  0.00000000E+00  0.00000000E+00
  0.00000000E+00  0.00000000E+00  0.00000000E+00
  0.00000000E+00  0.00000000E+00  0.00000000E+00
  0.00000000E+00  0.00000000E+00  0.00000000E+00
  0.00000000E+00  0.00000000E+00  0.00000000E+00
  0.00000000E+00  0.00000000E+00  0.00000000E+00
  0.00000000E+00  0.00000000E+00  0.00000000E+00
  0.00000000E+00  0.00000000E+00  0.00000000E+00
  0.00000000E+00  0.00000000E+00  0.00000000E+00
  0.00000000E+00  0.00000000E+00  0.00000000E+00
  0.00000000E+00  0.00000000E+00  0.00000000E+00
  0.00000000E+00  0.00000000E+00  0.00000000E+00
  0.00000000E+00  0.00000000E+00  0.00000000E+00
  0.00000000E+00  0.00000000E+00  0.00000000E+00
  0.00000000E+00  0.00000000E+00  0.00000000E+00
  0.00000000E+00  0.00000000E+00  0.00000000E+00
  0.00000000E+00  0.00000000E+00  0.00000000E+00
  0.00000000E+00  0.00000000E+00  0.00000000E+00
  0.00000000E+00  0.00000000E+00  0.00000000E+00
  0.00000000E+00  0.00000000E+00  0.00000000E+00
  0.00000000E+00  0.00000000E+00  0.00000000E+00
  0.00000000E+00  0.00000000E+00  0.00000000E+00
  0.00000000E+00  0.00000000E+00  0.00000000E+00
  0.00000000E+00  0.00000000E+00  0.00000000E+00
  0.00000000E+00  0.00000000E+00  0.00000000E+00
  0.00000000E+00  0.00000000E+00  0.00000000E+00
  0.00000000E+00  0.00000000E+00  0.00000000E+00
  0.00000000E+00  0.00000000E+00  0.00000000E+00
  0.00000000E+00  0.00000000E+00  0.00000000E+00
  0.00000000E+00  0.00000000E+00  0.00000000E+00
  0.00000000E+00  0.00000000E+00  0.00000000E+00
  0.00000000E+00  0.00000000E+00  0.00000000E+00
  0.00000000E+00  0.00000000E+00  0.00000000E+00
  0.00000000E+00  0.00000000E+00  0.00000000E+00
  0.00000000E+00  0.00000000E+00  0.00000000E+00
  0.00000000E+00  0.00000000E+00  0.00000000E+00
  0.00000000E+00  0.00000000E+00  0.00000000E+00
  0.00000000E+00  0.00000000E+00  0.00000000E+00
  0.00000000E+00  0.00000000E+00  0.00000000E+00
  0.00000000E+00  0.00000000E+00  0.00000000E+00
  0.00000000E+00  0.00000000E+00  0.00000000E+00
  0.00000000E+00  0.00000000E+00  0.00000000E+00
