LYC-164-space-group                     
   1.00000000000000     
    11.3393121675368995    0.0000000215239819    0.0000000000000000
    -5.6696561024087639    9.8201323877561855    0.0000000000000000
     0.0000000000000000    0.0000000000000000   12.3893483621718516
   Cl   Li   Y 
    35    17     6
Direct
  0.1169946299979873  0.8839453592563669  0.3755539803949380
  0.1019191413502725  0.2310697661573271  0.3708512025164626
  0.7693632640937890  0.8908444488550367  0.3763853529252683
  0.8848566089309350  0.1138469409151364  0.6038890741513480
  0.2255686725491430  0.1014144251867674  0.6041549012586769
  0.8838321568924660  0.7721605565197814  0.5997071148386618
  0.1243008090749294  0.1996263870231947  0.8760728461407702
  0.7896313432880965  0.9033244655327566  0.8782203093616282
  0.8698827534414676  0.1172539870334677  0.1238793438145230
  0.2254069478047235  0.1100641098832090  0.1116026735082027
  0.9147505611060405  0.7732896610690687  0.0997543622980403
  0.2200779324343465  0.7779201418574047  0.1413416989301952
  0.2205597518637525  0.4305206767712578  0.1361367442204650
  0.5754384661533161  0.7939700356013842  0.1306649892188437
  0.7965516134925863  0.2371008401349695  0.8608412288024950
  0.4481429597660871  0.2045579478988202  0.8631315759728398
  0.7796945633546366  0.5653976820242234  0.8626693454716633
  0.2241709360831863  0.7954163054031816  0.6446467235878520
  0.1886545563058084  0.4277827123118506  0.6447614859260775
  0.5628622153361007  0.7736622444959484  0.6354688283117675
  0.7794921007481351  0.2260278202413666  0.3622485659312925
  0.4315697937517073  0.2136255296984445  0.3537549119966404
  0.7765059664702085  0.5692899211977496  0.3504172340334394
  0.4597105854352456  0.5611761391711397  0.3707116929165907
  0.4580053583616868  0.9162423499247039  0.3832624088004151
  0.0872697747723394  0.5493923987854257  0.3845734079134678
  0.5661769352880053  0.4666742829411768  0.6387179703492296
  0.8862871644548140  0.4408117814862198  0.6169583558118841
  0.5484637871725225  0.1107480564519436  0.6242235304136164
  0.4249508567124552  0.5553186944490461  0.8865710139446897
  0.4410609714422888  0.8695670621776389  0.8875070090561472
  0.1301145328832302  0.5812709578442046  0.8936481631347103
  0.5462863440966446  0.4390694216537822  0.1221448678079260
  0.8969100586285214  0.4508808146412562  0.1334947409596182
  0.5588580690509479  0.1050708773970588  0.1283037415115287
  0.6787824480294889  0.0307479697217763  0.9680278931906957
  0.9438186079248755  0.6107428616001130  0.9931993887460748
  0.3440147336315477  0.2984308847844508  0.9819654354592318
  0.3538947747470094  0.0207679124513928  0.4847681516071453
  0.0031029653885321  0.3533479796495451  0.5005163248152678
  0.6353039897584125  0.6261950063311308  0.4926550751272455
  0.6380012844941534  0.9815492601217584  0.5178605339189309
  0.0120364948518267  0.6548224745723320  0.5214923032361807
  0.3504941645983825  0.9906054926668563  0.2429353798428191
  0.0150748775339592  0.3608543291997492  0.2545137925903472
  0.6309556477115355  0.6469245624352876  0.2423277414542939
  0.3413548832148853  0.0333912318859251  0.7283890276896577
  0.9931334774574366  0.2628066374623620  0.7607586514794933
  0.7163604919248756  0.7034627715820730  0.7512817741703762
  0.6512126029577325  0.9935382423462489  0.2632712588604447
  0.0132449359765979  0.6638215442868078  0.2619464571038437
  0.3324583448199904  0.3539103423844441  0.2871517007374692
 -0.0132769704203160  0.0126377747802972  0.0207375765062175
  0.0026104708181575  0.0036853612364745  0.4874569544110490
  0.6716295688292013  0.3419194078971947  0.7431534014839679
  0.3286123266331845  0.6607202343920821  0.7354227897168719
  0.6619235844130072  0.3328923550719095  0.2433249305247419
  0.3372464135882384  0.6647924285354231  0.0406200138993745
 
  0.00000000E+00  0.00000000E+00  0.00000000E+00
  0.00000000E+00  0.00000000E+00  0.00000000E+00
  0.00000000E+00  0.00000000E+00  0.00000000E+00
  0.00000000E+00  0.00000000E+00  0.00000000E+00
  0.00000000E+00  0.00000000E+00  0.00000000E+00
  0.00000000E+00  0.00000000E+00  0.00000000E+00
  0.00000000E+00  0.00000000E+00  0.00000000E+00
  0.00000000E+00  0.00000000E+00  0.00000000E+00
  0.00000000E+00  0.00000000E+00  0.00000000E+00
  0.00000000E+00  0.00000000E+00  0.00000000E+00
  0.00000000E+00  0.00000000E+00  0.00000000E+00
  0.00000000E+00  0.00000000E+00  0.00000000E+00
  0.00000000E+00  0.00000000E+00  0.00000000E+00
  0.00000000E+00  0.00000000E+00  0.00000000E+00
  0.00000000E+00  0.00000000E+00  0.00000000E+00
  0.00000000E+00  0.00000000E+00  0.00000000E+00
  0.00000000E+00  0.00000000E+00  0.00000000E+00
  0.00000000E+00  0.00000000E+00  0.00000000E+00
  0.00000000E+00  0.00000000E+00  0.00000000E+00
  0.00000000E+00  0.00000000E+00  0.00000000E+00
  0.00000000E+00  0.00000000E+00  0.00000000E+00
  0.00000000E+00  0.00000000E+00  0.00000000E+00
  0.00000000E+00  0.00000000E+00  0.00000000E+00
  0.00000000E+00  0.00000000E+00  0.00000000E+00
  0.00000000E+00  0.00000000E+00  0.00000000E+00
  0.00000000E+00  0.00000000E+00  0.00000000E+00
  0.00000000E+00  0.00000000E+00  0.00000000E+00
  0.00000000E+00  0.00000000E+00  0.00000000E+00
  0.00000000E+00  0.00000000E+00  0.00000000E+00
  0.00000000E+00  0.00000000E+00  0.00000000E+00
  0.00000000E+00  0.00000000E+00  0.00000000E+00
  0.00000000E+00  0.00000000E+00  0.00000000E+00
  0.00000000E+00  0.00000000E+00  0.00000000E+00
  0.00000000E+00  0.00000000E+00  0.00000000E+00
  0.00000000E+00  0.00000000E+00  0.00000000E+00
  0.00000000E+00  0.00000000E+00  0.00000000E+00
  0.00000000E+00  0.00000000E+00  0.00000000E+00
  0.00000000E+00  0.00000000E+00  0.00000000E+00
  0.00000000E+00  0.00000000E+00  0.00000000E+00
  0.00000000E+00  0.00000000E+00  0.00000000E+00
  0.00000000E+00  0.00000000E+00  0.00000000E+00
  0.00000000E+00  0.00000000E+00  0.00000000E+00
  0.00000000E+00  0.00000000E+00  0.00000000E+00
  0.00000000E+00  0.00000000E+00  0.00000000E+00
  0.00000000E+00  0.00000000E+00  0.00000000E+00
  0.00000000E+00  0.00000000E+00  0.00000000E+00
  0.00000000E+00  0.00000000E+00  0.00000000E+00
  0.00000000E+00  0.00000000E+00  0.00000000E+00
  0.00000000E+00  0.00000000E+00  0.00000000E+00
  0.00000000E+00  0.00000000E+00  0.00000000E+00
  0.00000000E+00  0.00000000E+00  0.00000000E+00
  0.00000000E+00  0.00000000E+00  0.00000000E+00
  0.00000000E+00  0.00000000E+00  0.00000000E+00
  0.00000000E+00  0.00000000E+00  0.00000000E+00
  0.00000000E+00  0.00000000E+00  0.00000000E+00
  0.00000000E+00  0.00000000E+00  0.00000000E+00
  0.00000000E+00  0.00000000E+00  0.00000000E+00
  0.00000000E+00  0.00000000E+00  0.00000000E+00
