 vasp.5.4.4.18Apr17-6-g9f103f2a35 (build Feb 24 2022 11:29:53) complex          
  
 executed on             LinuxIFC date 2024.05.02  16:05:06
 running on   60 total cores
 distrk:  each k-point on   60 cores,    1 groups
 distr:  one band on NCORES_PER_BAND=   1 cores,   60 groups


--------------------------------------------------------------------------------------------------------


 INCAR:
 POTCAR:    PAW_PBE Cl 17Jan2003                  
 POTCAR:    PAW_PBE Li 17Jan2003                  
 POTCAR:   PAW_PBE Y_sv 06Sep2000                 

 ----------------------------------------------------------------------------- 
|                                                                             |
|           W    W    AA    RRRRR   N    N  II  N    N   GGGG   !!!           |
|           W    W   A  A   R    R  NN   N  II  NN   N  G    G  !!!           |
|           W    W  A    A  R    R  N N  N  II  N N  N  G       !!!           |
|           W WW W  AAAAAA  RRRRR   N  N N  II  N  N N  G  GGG   !            |
|           WW  WW  A    A  R   R   N   NN  II  N   NN  G    G                |
|           W    W  A    A  R    R  N    N  II  N    N   GGGG   !!!           |
|                                                                             |
|      For optimal performance we recommend to set                            |
|        NCORE= 4 - approx SQRT( number of cores)                             |
|      NCORE specifies how many cores store one orbital (NPAR=cpu/NCORE).     |
|      This setting can  greatly improve the performance of VASP for DFT.     |
|      The default,   NCORE=1            might be grossly inefficient         |
|      on modern multi-core architectures or massively parallel machines.     |
|      Do your own testing !!!!                                               |
|      Unfortunately you need to use the default for GW and RPA calculations. |
|      (for HF NCORE is supported but not extensively tested yet)             |
|                                                                             |
 ----------------------------------------------------------------------------- 

 POTCAR:    PAW_PBE Cl 17Jan2003                  
   VRHFIN =Cl: s2p5                                                             
   LEXCH  = PE                                                                  
   EATOM  =   409.7259 eV,   30.1140 Ry                                         
                                                                                
   TITEL  = PAW_PBE Cl 17Jan2003                                                
   LULTRA =        F    use ultrasoft PP ?                                      
   IUNSCR =        1    unscreen: 0-lin 1-nonlin 2-no                           
   RPACOR =    1.500    partial core radius                                     
   POMASS =   35.453; ZVAL   =    7.000    mass and valenz                      
   RCORE  =    1.900    outmost cutoff radius                                   
   RWIGS  =    2.100; RWIGS  =    1.111    wigner-seitz radius (au A)           
   ENMAX  =  280.000; ENMIN  =  196.854 eV                                      
   ICORE  =        2    local potential                                         
   LCOR   =        T    correct aug charges                                     
   LPAW   =        T    paw PP                                                  
   EAUG   =  356.192                                                            
   DEXC   =     .000                                                            
   RMAX   =    2.846    core radius for proj-oper                               
   RAUG   =    1.300    factor for augmentation sphere                          
   RDEP   =    2.020    radius for radial grids                                 
   QCUT   =   -4.392; QGAM   =    8.784    optimization parameters              
                                                                                
   Description                                                                  
     l     E      TYP  RCUT    TYP  RCUT                                        
     0   .000     23  1.900                                                     
     0   .000     23  1.900                                                     
     1   .000     23  1.900                                                     
     1   .000     23  1.900                                                     
     2   .000     23  1.900                                                     
  local pseudopotential read in
  partial core-charges read in
  atomic valenz-charges read in
  non local Contribution for L=           0  read in
    real space projection operators read in
  non local Contribution for L=           0  read in
    real space projection operators read in
  non local Contribution for L=           1  read in
    real space projection operators read in
  non local Contribution for L=           1  read in
    real space projection operators read in
    PAW grid and wavefunctions read in
 
   number of l-projection  operators is LMAX  =           4
   number of lm-projection operators is LMMAX =           8
 
 POTCAR:    PAW_PBE Li 17Jan2003                  
   VRHFIN =Li: s1p0                                                             
   LEXCH  = PE                                                                  
   EATOM  =     5.3001 eV,     .3895 Ry                                         
                                                                                
   TITEL  = PAW_PBE Li 17Jan2003                                                
   LULTRA =        F    use ultrasoft PP ?                                      
   IUNSCR =        1    unscreen: 0-lin 1-nonlin 2-no                           
   RPACOR =    1.500    partial core radius                                     
   POMASS =    7.010; ZVAL   =    1.000    mass and valenz                      
   RCORE  =    2.050    outmost cutoff radius                                   
   RWIGS  =    2.600; RWIGS  =    1.376    wigner-seitz radius (au A)           
   ENMAX  =  140.000; ENMIN  =  100.000 eV                                      
   ICORE  =        2    local potential                                         
   LCOR   =        T    correct aug charges                                     
   LPAW   =        T    paw PP                                                  
   EAUG   =  331.638                                                            
   DEXC   =    -.010                                                            
   RMAX   =    4.263    core radius for proj-oper                               
   RAUG   =    1.300    factor for augmentation sphere                          
   RDEP   =    2.094    radius for radial grids                                 
   QCUT   =   -2.932; QGAM   =    5.865    optimization parameters              
                                                                                
   Description                                                                  
     l     E      TYP  RCUT    TYP  RCUT                                        
     0   .000     23  2.050                                                     
     0  2.000     23  2.050                                                     
     1   .000     23  2.050                                                     
     2   .000     23  2.050                                                     
  local pseudopotential read in
  partial core-charges read in
  atomic valenz-charges read in
  non local Contribution for L=           0  read in
    real space projection operators read in
  non local Contribution for L=           0  read in
    real space projection operators read in
  non local Contribution for L=           1  read in
    real space projection operators read in
    PAW grid and wavefunctions read in
 
   number of l-projection  operators is LMAX  =           3
   number of lm-projection operators is LMMAX =           5
 
 POTCAR:   PAW_PBE Y_sv 06Sep2000                 
   VRHFIN =Y: 4s4p5s4d                                                          
   LEXCH  = PE                                                                  
   EATOM  =  1046.2256 eV,   76.8954 Ry                                         
                                                                                
   TITEL  = PAW_PBE Y_sv 06Sep2000                                              
   LULTRA =        F    use ultrasoft PP ?                                      
   IUNSCR =        1    unscreen: 0-lin 1-nonlin 2-no                           
   RPACOR =    2.200    partial core radius                                     
   POMASS =   88.906; ZVAL   =   11.000    mass and valenz                      
   RCORE  =    2.600    outmost cutoff radius                                   
   RWIGS  =    3.430; RWIGS  =    1.815    wigner-seitz radius (au A)           
   ENMAX  =  211.641; ENMIN  =  158.731 eV                                      
   RCLOC  =    2.212    cutoff for local pot                                    
   LCOR   =        T    correct aug charges                                     
   LPAW   =        T    paw PP                                                  
   EAUG   =  363.258                                                            
   DEXC   =     .000                                                            
   RMAX   =    3.169    core radius for proj-oper                               
   RAUG   =    1.300    factor for augmentation sphere                          
   RDEP   =    2.745    radius for radial grids                                 
   QCUT   =   -3.944; QGAM   =    7.888    optimization parameters              
                                                                                
   Description                                                                  
     l     E      TYP  RCUT    TYP  RCUT                                        
     0   .000     23  2.600                                                     
     0   .000     23  2.600                                                     
     1   .000     23  2.600                                                     
     1   .000     23  2.600                                                     
     2   .000     23  2.600                                                     
     2   .000     23  2.600                                                     
     3   .000      7   .000                                                     
  local pseudopotential read in
  partial core-charges read in
  atomic valenz-charges read in
  non local Contribution for L=           0  read in
    real space projection operators read in
  non local Contribution for L=           0  read in
    real space projection operators read in
  non local Contribution for L=           1  read in
    real space projection operators read in
  non local Contribution for L=           1  read in
    real space projection operators read in
  non local Contribution for L=           2  read in
    real space projection operators read in
  non local Contribution for L=           2  read in
    real space projection operators read in
    PAW grid and wavefunctions read in
 
   number of l-projection  operators is LMAX  =           6
   number of lm-projection operators is LMMAX =          18
 

 ----------------------------------------------------------------------------- 
|                                                                             |
|  ADVICE TO THIS USER RUNNING 'VASP/VAMP'   (HEAR YOUR MASTER'S VOICE ...):  |
|                                                                             |
|      You have a (more or less) 'large supercell' and for larger cells       |
|      it might be more efficient to use real space projection operators      |
|      So try LREAL= Auto  in the INCAR   file.                               |
|      Mind: If you want to do a very accurate calculations keep the          |
|      reciprocal projection scheme          (i.e. LREAL=.FALSE.)             |
|                                                                             |
 ----------------------------------------------------------------------------- 

  PAW_PBE Cl 17Jan2003                  :
 energy of atom  1       EATOM= -409.7259
 kinetic energy error for atom=    0.0023 (will be added to EATOM!!)
  PAW_PBE Li 17Jan2003                  :
 energy of atom  2       EATOM=   -5.3001
 kinetic energy error for atom=    0.0000 (will be added to EATOM!!)
 PAW_PBE Y_sv 06Sep2000                 :
 energy of atom  3       EATOM=-1046.2256
 kinetic energy error for atom=    0.0009 (will be added to EATOM!!)
 
 
 POSCAR: LYC-165-space-group                     
  positions in direct lattice
  velocities in cartesian coordinates
 exchange correlation table for  LEXCH =        8
   RHO(1)=    0.500       N(1)  =     2000
   RHO(2)=  100.500       N(2)  =     4000
 


--------------------------------------------------------------------------------------------------------


 ion  position               nearest neighbor table
   1  0.118  0.882  0.381-  53 2.64  56 2.66  40 2.79  44 2.80  46 2.87
   2  0.118  0.236  0.381-  54 2.64  56 2.66  41 2.79  45 2.80  47 2.87
   3  0.764  0.882  0.381-  52 2.64  56 2.66  42 2.79  43 2.80  48 2.87
   4  0.887  0.115  0.603-  50 2.48  56 2.67  41 2.68  43 2.68
   5  0.228  0.113  0.603-  49 2.48  56 2.67  40 2.68  45 2.68
   6  0.885  0.772  0.603-  51 2.48  56 2.67  42 2.68  44 2.68
   7  0.090  0.874  0.883-  49 2.37  38 2.47  55 2.66
   8  0.126  0.216  0.883-  50 2.37  39 2.47  55 2.66
   9  0.784  0.910  0.883-  51 2.37  37 2.47  55 2.66
  10  0.877  0.107  0.123-  37 2.52  55 2.65  52 2.72  47 2.90
  11  0.231  0.123  0.123-  39 2.52  55 2.65  54 2.72  46 2.90
  12  0.893  0.769  0.123-  38 2.52  55 2.65  53 2.72  48 2.90
  13  0.215  0.781  0.138-  46 2.46  53 2.53  60 2.59
  14  0.219  0.435  0.138-  47 2.46  54 2.53  60 2.59
  15  0.565  0.785  0.138-  48 2.46  52 2.53  60 2.59
  16  0.795  0.238  0.861-  50 2.41  37 2.42  57 2.65
  17  0.443  0.205  0.861-  49 2.41  39 2.42  57 2.65
  18  0.762  0.557  0.861-  51 2.41  38 2.42  57 2.65
  19  0.231  0.798  0.636-  44 2.55  58 2.62  49 2.72  40 2.75
  20  0.202  0.433  0.636-  45 2.55  58 2.62  50 2.72  41 2.75
  21  0.567  0.769  0.636-  43 2.55  58 2.62  51 2.72  42 2.75
  22  0.789  0.226  0.356-  47 2.60  52 2.60  41 2.62  59 2.67
  23  0.438  0.211  0.356-  46 2.60  54 2.60  40 2.62  59 2.67
  24  0.774  0.562  0.356-  48 2.60  53 2.60  42 2.62  59 2.67
  25  0.452  0.537  0.380-  42 2.40  45 2.44  54 2.46  48 2.50
  26  0.463  0.915  0.380-  40 2.40  43 2.44  52 2.46  46 2.50
  27  0.085  0.548  0.380-  41 2.40  44 2.44  53 2.46  47 2.50
  28  0.555  0.447  0.621-  42 2.44  45 2.46  57 2.66
  29  0.892  0.445  0.621-  41 2.44  44 2.46  57 2.66
  30  0.553  0.108  0.621-  40 2.44  43 2.46  57 2.66
  31  0.430  0.560  0.887-  58 2.73  60 2.73  39 2.82
  32  0.440  0.870  0.887-  58 2.73  60 2.73  37 2.82
  33  0.130  0.570  0.887-  58 2.73  60 2.73  38 2.82
  34  0.543  0.438  0.126-  48 2.52  54 2.59  59 2.65  39 2.70
  35  0.895  0.457  0.126-  47 2.52  53 2.59  59 2.65  38 2.70
  36  0.562  0.105  0.126-  46 2.52  52 2.59  59 2.65  37 2.70
  37  0.698  0.042  0.979-  16 2.42   9 2.47  10 2.52  36 2.70  32 2.82  55 3.71
  38  0.958  0.656  0.979-  18 2.42   7 2.47  12 2.52  35 2.70  33 2.82  55 3.71
  39  0.344  0.302  0.979-  17 2.42   8 2.47  11 2.52  34 2.70  31 2.82  55 3.71
  40  0.363  0.012  0.495-  26 2.40  30 2.44  23 2.62   5 2.68  19 2.75   1 2.79  46 3.14
  41  0.988  0.351  0.495-  27 2.40  29 2.44  22 2.62   4 2.68  20 2.75   2 2.79  47 3.14
  42  0.649  0.637  0.495-  25 2.40  28 2.44  24 2.62   6 2.68  21 2.75   3 2.79  48 3.14
  43  0.636  0.978  0.519-  26 2.44  30 2.46  21 2.55   4 2.68   3 2.80  52 3.27
  44  0.022  0.658  0.519-  27 2.44  29 2.46  19 2.55   6 2.68   1 2.80  53 3.27
  45  0.342  0.364  0.519-  25 2.44  28 2.46  20 2.55   5 2.68   2 2.80  54 3.27
  46  0.352  0.991  0.242-  13 2.46  26 2.50  36 2.52  23 2.60   1 2.87  11 2.90  40 3.14  59 3.73

  47  0.009  0.362  0.242-  14 2.46  27 2.50  35 2.52  22 2.60   2 2.87  10 2.90  41 3.14  59 3.73

  48  0.638  0.648  0.242-  15 2.46  25 2.50  34 2.52  24 2.60   3 2.87  12 2.90  42 3.14  59 3.73

  49  0.272  0.010  0.764-   7 2.37  17 2.41   5 2.48  19 2.72
  50  0.990  0.262  0.764-   8 2.37  16 2.41   4 2.48  20 2.72
  51  0.738  0.728  0.764-   9 2.37  18 2.41   6 2.48  21 2.72
  52  0.657  0.994  0.256-  26 2.46  15 2.53  36 2.59  22 2.60   3 2.64  10 2.72  43 3.27  59 3.80

  53  0.006  0.664  0.256-  27 2.46  13 2.53  35 2.59  24 2.60   1 2.64  12 2.72  44 3.27  59 3.80

  54  0.336  0.343  0.256-  25 2.46  14 2.53  34 2.59  23 2.60   2 2.64  11 2.72  45 3.27  59 3.80

  55  0.000  0.000  0.012-  10 2.65  12 2.65  11 2.65   8 2.66   7 2.66   9 2.66  37 3.71  39 3.71
                            38 3.71
  56  0.000  0.000  0.486-   2 2.66   3 2.66   1 2.66   4 2.67   6 2.67   5 2.67
  57  0.667  0.333  0.741-  16 2.65  18 2.65  17 2.65  29 2.66  28 2.66  30 2.66
  58  0.333  0.667  0.737-  19 2.62  20 2.62  21 2.62  32 2.73  33 2.73  31 2.73  60 3.73
  59  0.667  0.333  0.241-  35 2.65  36 2.65  34 2.65  22 2.67  23 2.67  24 2.67  47 3.73  48 3.73
                            46 3.73  52 3.80  53 3.80  54 3.80
  60  0.333  0.667  0.038-  13 2.59  15 2.59  14 2.59  31 2.73  33 2.73  32 2.73  58 3.73
 
  LATTYP: Found a hexagonal cell.
 ALAT       =    11.3341369449
 C/A-ratio  =     1.0941000998
  
  Lattice vectors:
  
 A1 = (  11.3341289675,   0.0000037802,   0.0000025580)
 A2 = (  -5.6670615697,   9.8156473644,  -0.0000036551)
 A3 = (   0.0000020303,  -0.0000028651,  12.4006803623)


Analysis of symmetry for initial positions (statically):
=====================================================================
 Subroutine PRICEL returns:
 Original cell was already a primitive cell.
 

 Routine SETGRP: Setting up the symmetry group for a 
 hexagonal supercell.


 Subroutine GETGRP returns: Found  3 space group operations
 (whereof  3 operations were pure point group operations)
 out of a pool of 24 trial point group operations.


The static configuration has the point symmetry C_3 .


Analysis of symmetry for dynamics (positions and initial velocities):
=====================================================================
 Subroutine PRICEL returns:
 Original cell was already a primitive cell.
 

 Routine SETGRP: Setting up the symmetry group for a 
 hexagonal supercell.


 Subroutine GETGRP returns: Found  3 space group operations
 (whereof  3 operations were pure point group operations)
 out of a pool of 24 trial point group operations.


The dynamic configuration has the point symmetry C_3 .


 Subroutine INISYM returns: Found  3 space group operations
 (whereof  3 operations are pure point group operations),
 and found     1 'primitive' translations

 
 
 KPOINTS: Automatic mesh                          

Automatic generation of k-mesh.
Space group operators:
 irot       det(A)        alpha          n_x          n_y          n_z        tau_x        tau_y        tau_z
    1     1.000000     0.000001     1.000000     0.000000     0.000000     0.000000     0.000000     0.000000
    2     1.000000   120.000000    -0.000000    -0.000000    -1.000000     0.000000     0.000000     0.000000
    3     1.000000   120.000000    -0.000000    -0.000000     1.000000     0.000000     0.000000     0.000000
 
 Subroutine IBZKPT returns following result:
 ===========================================
 
 Found      1 irreducible k-points:
 
 Following reciprocal coordinates:
            Coordinates               Weight
  0.000000  0.000000  0.000000      1.000000
 
 Following cartesian coordinates:
            Coordinates               Weight
  0.000000  0.000000  0.000000      1.000000
 


--------------------------------------------------------------------------------------------------------




 Dimension of arrays:
   k-points           NKPTS =      1   k-points in BZ     NKDIM =      1   number of bands    NBANDS=    240
   number of dos      NEDOS =    301   number of ions     NIONS =     60
   non local maximal  LDIM  =      6   non local SUM 2l+1 LMDIM =     18
   total plane-waves  NPLWV = 677376
   max r-space proj   IRMAX =      1   max aug-charges    IRDMAX=  29409
   dimension x,y,z NGX =    84 NGY =   84 NGZ =   96
   dimension x,y,z NGXF=   168 NGYF=  168 NGZF=  192
   support grid    NGXF=   168 NGYF=  168 NGZF=  192
   ions per type =              36  18   6
   NGX,Y,Z   is equivalent  to a cutoff of  12.32, 12.32, 12.87 a.u.
   NGXF,Y,Z  is equivalent  to a cutoff of  24.64, 24.64, 25.74 a.u.

 SYSTEM =  "beta"                                  
 POSCAR =  LYC-165-space-group                     

 Startparameter for this run:
   NWRITE =      2    write-flag & timer
   PREC   = a         normal or accurate (medium, high low for compatibility)
   ISTART =      0    job   : 0-new  1-cont  2-samecut
   ICHARG =      2    charge: 1-file 2-atom 10-const
   ISPIN  =      1    spin polarized calculation?
   LNONCOLLINEAR =      F non collinear calculations
   LSORBIT =      F    spin-orbit coupling
   INIWAV =      1    electr: 0-lowe 1-rand  2-diag
   LASPH  =      F    aspherical Exc in radial PAW
   METAGGA=      F    non-selfconsistent MetaGGA calc.

 Electronic Relaxation 1
   ENCUT  =  520.0 eV  38.22 Ry    6.18 a.u.  21.07 21.07 23.06*2*pi/ulx,y,z
   ENINI  =  520.0     initial cutoff
   ENAUG  =  363.3 eV  augmentation charge cutoff
   NELM   =    200;   NELMIN=  6; NELMDL= -5     # of ELM steps 
   EDIFF  = 0.1E-04   stopping-criterion for ELM
   LREAL  =      F    real-space projection
   NLSPLINE    = F    spline interpolate recip. space projectors
   LCOMPAT=      F    compatible to vasp.4.4
   GGA_COMPAT  = T    GGA compatible to vasp.4.4-vasp.4.6
   LMAXPAW     = -100 max onsite density
   LMAXMIX     =    2 max onsite mixed and CHGCAR
   VOSKOWN=      0    Vosko Wilk Nusair interpolation
   ROPT   =    0.00000   0.00000   0.00000
 Ionic relaxation
   EDIFFG = -.1E-01   stopping-criterion for IOM
   NSW    =    200    number of steps for IOM
   NBLOCK =      1;   KBLOCK =    200    inner block; outer block 
   IBRION =      2    ionic relax: 0-MD 1-quasi-New 2-CG
   NFREE  =      1    steps in history (QN), initial steepest desc. (CG)
   ISIF   =      2    stress and relaxation
   IWAVPR =     11    prediction:  0-non 1-charg 2-wave 3-comb
   ISYM   =      2    0-nonsym 1-usesym 2-fastsym
   LCORR  =      T    Harris-Foulkes like correction to forces

   POTIM  = 0.5000    time-step for ionic-motion
   TEIN   =    0.0    initial temperature
   TEBEG  =    0.0;   TEEND  =   0.0 temperature during run
   SMASS  =  -3.00    Nose mass-parameter (am)
   estimated Nose-frequenzy (Omega)   =  0.10E-29 period in steps =****** mass=  -0.294E-26a.u.
   SCALEE = 1.0000    scale energy and forces
   NPACO  =    256;   APACO  = 16.0  distance and # of slots for P.C.
   PSTRESS=    0.0 pullay stress

  Mass of Ions in am
   POMASS =  35.45  7.01 88.91
  Ionic Valenz
   ZVAL   =   7.00  1.00 11.00
  Atomic Wigner-Seitz radii
   RWIGS  =  -1.00 -1.00 -1.00
  virtual crystal weights 
   VCA    =   1.00  1.00  1.00
   NELECT =     336.0000    total number of electrons
   NUPDOWN=      -1.0000    fix difference up-down

 DOS related values:
   EMIN   =  10.00;   EMAX   =-10.00  energy-range for DOS
   EFERMI =   0.00
   ISMEAR =     0;   SIGMA  =   0.10  broadening in eV -4-tet -1-fermi 0-gaus

 Electronic relaxation 2 (details)
   IALGO  =     38    algorithm
   LDIAG  =      T    sub-space diagonalisation (order eigenvalues)
   LSUBROT=      F    optimize rotation matrix (better conditioning)
   TURBO    =      0    0=normal 1=particle mesh
   IRESTART =      0    0=no restart 2=restart with 2 vectors
   NREBOOT  =      0    no. of reboots
   NMIN     =      0    reboot dimension
   EREF     =   0.00    reference energy to select bands
   IMIX   =      4    mixing-type and parameters
     AMIX     =   0.20;   BMIX     =  0.00
     AMIX_MAG =   0.80;   BMIX_MAG =  0.00
     AMIN     =   0.10
     WC   =   100.;   INIMIX=   1;  MIXPRE=   1;  MAXMIX= -45

 Intra band minimization:
   WEIMIN = 0.0010     energy-eigenvalue tresh-hold
   EBREAK =  0.10E-07  absolut break condition
   DEPER  =   0.30     relativ break condition  

   TIME   =   0.40     timestep for ELM

  volume/ion in A,a.u.               =      22.99       155.17
  Fermi-wavevector in a.u.,A,eV,Ry     =   1.022360  1.931980 14.221071  1.045219
  Thomas-Fermi vector in A             =   2.156035
 
 Write flags
   LWAVE        =      F    write WAVECAR
   LDOWNSAMPLE  =      F    k-point downsampling of WAVECAR
   LCHARG       =      F    write CHGCAR
   LVTOT        =      F    write LOCPOT, total local potential
   LVHAR        =      F    write LOCPOT, Hartree potential only
   LELF         =      F    write electronic localiz. function (ELF)
   LORBIT       =     11    0 simple, 1 ext, 2 COOP (PROOUT), +10 PAW based schemes


 Dipole corrections
   LMONO  =      F    monopole corrections only (constant potential shift)
   LDIPOL =      F    correct potential (dipole corrections)
   IDIPOL =      0    1-x, 2-y, 3-z, 4-all directions 
   EPSILON=  1.0000000 bulk dielectric constant

 Exchange correlation treatment:
   GGA     =    --    GGA type
   LEXCH   =     8    internal setting for exchange type
   VOSKOWN=      0    Vosko Wilk Nusair interpolation
   LHFCALC =     F    Hartree Fock is set to
   LHFONE  =     F    Hartree Fock one center treatment
   AEXX    =    0.0000 exact exchange contribution

 Linear response parameters
   LEPSILON=     F    determine dielectric tensor
   LRPA    =     F    only Hartree local field effects (RPA)
   LNABLA  =     F    use nabla operator in PAW spheres
   LVEL    =     F    velocity operator in full k-point grid
   LINTERFAST=   F  fast interpolation
   KINTER  =     0    interpolate to denser k-point grid
   CSHIFT  =0.1000    complex shift for real part using Kramers Kronig
   OMEGAMAX=  -1.0    maximum frequency
   DEG_THRESHOLD= 0.2000000E-02 threshold for treating states as degnerate
   RTIME   =   -0.100 relaxation time in fs
  (WPLASMAI=    0.000 imaginary part of plasma frequency in eV, 0.658/RTIME)
   DFIELD  = 0.0000000 0.0000000 0.0000000 field for delta impulse in time
 
 Orbital magnetization related:
   ORBITALMAG=     F  switch on orbital magnetization
   LCHIMAG   =     F  perturbation theory with respect to B field
   DQ        =  0.001000  dq finite difference perturbation B field
   LLRAUG    =     F  two centre corrections for induced B field



--------------------------------------------------------------------------------------------------------


 conjugate gradient relaxation of ions
 charge density and potential will be updated during run
 non-spin polarized calculation
 Variant of blocked Davidson
 Davidson routine will perform the subspace rotation
 perform sub-space diagonalisation
    after iterative eigenvector-optimisation
 modified Broyden-mixing scheme, WC =      100.0
 initial mixing is a Kerker type mixing with AMIX =  0.2000 and BMIX =      0.0000
 Hartree-type preconditioning will be used
 using additional bands           72
 reciprocal scheme for non local part
 use partial core corrections
 calculate Harris-corrections to forces 
   (improved forces if not selfconsistent)
 use gradient corrections 
 use of overlap-Matrix (Vanderbilt PP)
 Gauss-broadening in eV      SIGMA  =   0.10


--------------------------------------------------------------------------------------------------------


  energy-cutoff  :      520.00
  volume of cell :     1379.60
      direct lattice vectors                 reciprocal lattice vectors
    11.334128968  0.000003780  0.000002558     0.088229083  0.050939039 -0.000000003
    -5.667061570  9.815647364 -0.000003655    -0.000000034  0.101878131  0.000000024
     0.000002030 -0.000002865 12.400680362    -0.000000018  0.000000020  0.080640737

  length of vectors
    11.334128968 11.334130757 12.400680362     0.101878147  0.101878131  0.080640737


 
 k-points in units of 2pi/SCALE and weight: Automatic mesh                          
   0.00000000  0.00000000  0.00000000       1.000
 
 k-points in reciprocal lattice and weights: Automatic mesh                          
   0.00000000  0.00000000  0.00000000       1.000
 
 position of ions in fractional coordinates (direct lattice) 
   0.11777635  0.88177211  0.38057232
   0.11822786  0.23600403  0.38057236
   0.76399569  0.88222398  0.38057253
   0.88716361  0.11536611  0.60283766
   0.22820253  0.11283677  0.60283760
   0.88463435  0.77179793  0.60283756
   0.08971618  0.87420217  0.88282022
   0.12579842  0.21551402  0.88282069
   0.78448669  0.91028482  0.88282004
   0.87671487  0.10729124  0.12280951
   0.23057638  0.12328516  0.12280996
   0.89270908  0.76942358  0.12280916
   0.21519069  0.78056016  0.13789149
   0.21943979  0.43463075  0.13789175
   0.56536959  0.78480900  0.13789165
   0.79451933  0.23789710  0.86070456
   0.44337806  0.20548136  0.86070507
   0.76210387  0.55662241  0.86070486
   0.23139246  0.79805096  0.63580661
   0.20194834  0.43334181  0.63580659
   0.56665854  0.76860728  0.63580661
   0.78866170  0.22621977  0.35607084
   0.43755823  0.21133806  0.35607123
   0.77377965  0.56244193  0.35607080
   0.45242841  0.53726780  0.37967121
   0.46273189  0.91516031  0.37967117
   0.08483895  0.54757102  0.37967064
   0.55500785  0.44668778  0.62143942
   0.89167890  0.44499208  0.62143854
   0.55331199  0.10831984  0.62143986
   0.42953579  0.55980361  0.88724662
   0.44019672  0.86973243  0.88724670
   0.13026784  0.57046476  0.88724672
   0.54290854  0.43752411  0.12607436
   0.89461521  0.45709067  0.12607421
   0.56247545  0.10538413  0.12607445
   0.69815670  0.04243598  0.97898517
   0.95756521  0.65572100  0.97898504
   0.34427955  0.30184356  0.97898609
   0.36271013  0.01209913  0.49490809
   0.98790061  0.35061106  0.49490755
   0.64938928  0.63729011  0.49490793
   0.63569539  0.97816310  0.51934087
   0.02183686  0.65753236  0.51934048
   0.34246796  0.36430492  0.51934121
   0.35232721  0.99067353  0.24232771
   0.00932579  0.36165302  0.24232700
   0.63834582  0.64767205  0.24232761
   0.27172688  0.01009136  0.76369946
   0.98990970  0.26163530  0.76369946
   0.73836411  0.72827338  0.76369945
   0.65744702  0.99373795  0.25627305
   0.00626136  0.66370891  0.25627260
   0.33629064  0.34255232  0.25627333
   0.00000023  0.00000010  0.01154509
   0.00000000  0.00000017  0.48592655
   0.66666675  0.33333346  0.74096833
   0.33333335  0.66666687  0.73745123
   0.66666657  0.33333305  0.24077499
   0.33333354  0.66666672  0.03808614
 
 position of ions in cartesian coordinates  (Angst):
  -3.66216370  8.65516343  4.71935272
   0.00256123  2.31653168  4.71935568
   3.65960890  8.65960128  4.71935698
   9.40144114  1.13239466  7.47559899
   1.94702524  1.10756504  7.47559650
   5.65273465  7.57569789  7.47559534
  -3.93730097  8.58085807 10.94756838
   0.20448604  2.11540755 10.94757675
   3.73283496  8.93503523 10.94756782
   9.32877359  1.05313594  1.52292332
   1.91471806  1.21012419  1.52292720
   5.75770933  7.55239353  1.52291655
  -1.98448310  7.66170367  1.70994594
   0.02407990  4.26618263  1.70995044
   1.96041113  7.70341017  1.70994888
   7.65700876  2.33511461 10.67332330
   3.86083027  2.01693182 10.67332880
   5.48337187  5.46360969 10.67332581
  -1.89997064  7.83338582  7.88443221
  -0.16686485  4.25352933  7.88443324
   2.06683747  7.54437838  7.88443324
   7.65679275  2.22049543  4.41552192
   3.76167637  2.07442047  4.41552581
   5.58272599  5.52073352  4.41552005
   2.08315303  5.27363190  4.70818055
   0.05839385  8.98289155  4.70817866
  -2.14154228  5.37476326  4.70817251
   3.75912464  4.38453005  7.70627145
   7.58460739  4.36788693  7.70626133
   5.65745551  1.06322964  7.70627811
   1.69597432  5.49483396 11.00246083
   0.06042092  8.53698596 11.00246064
  -1.75638459  5.59947891 11.00246121
   3.67391954  4.29458411  1.56340760
   7.54932347  4.48664389  1.56340662
   5.77795123  1.03441520  1.56341001
   7.67251278  0.41653644 12.14008375
   7.13715829  6.43632689 12.14008065
   2.19154474  2.96278847 12.14009332
   4.04243788  0.11876070  6.13719796
   9.21005948  3.44147685  6.13719162
   3.74870053  6.25541601  6.13719437
   1.66174410  9.60130501  6.44017821
  -3.47877347  6.45410433  6.44017297
   1.81703867  3.57588844  6.44018388
  -1.62088538  9.72410268  3.00502575
  -1.94380974  3.54985789  3.00501842
   3.56469693  6.35732220  3.00502654
   3.02260066  0.09905211  9.47039362
   9.73706239  2.56812136  9.47039450
   4.24154554  7.14847529  9.47039195
   1.82001565  9.75418302  3.17795822
  -3.69031173  6.51473195  3.17795222
   1.87029692  3.36237333  3.17796328
   0.00000213  0.00000091  0.14316702
   0.00000007  0.00000026  6.02581983
   5.66706718  3.27188405  9.18851194
   0.00000251  6.54376608  9.14489539
   5.66706646  3.27188153  2.98577419
   0.00000406  6.54376657  0.47229245
 


--------------------------------------------------------------------------------------------------------


 k-point  1 :   0.0000 0.0000 0.0000  plane waves:   37079

 maximum and minimum number of plane-waves per node :     37079    37079

 maximum number of plane-waves:     37079
 maximum index in each direction: 
   IXMAX=   21   IYMAX=   21   IZMAX=   23
   IXMIN=  -21   IYMIN=  -21   IZMIN=  -23


 serial   3D FFT for wavefunctions
 parallel 3D FFT for charge:
    minimum data exchange during FFTs selected (reduces bandwidth)


 total amount of memory used by VASP MPI-rank0   124439. kBytes
=======================================================================

   base      :      30000. kBytes
   nonl-proj :      51615. kBytes
   fftplans  :       6035. kBytes
   grid      :      33449. kBytes
   one-center:        933. kBytes
   wavefun   :       2407. kBytes
 
     INWAV:  cpu time    0.0001: real time    0.0003
 Broyden mixing: mesh for mixing (old mesh)
   NGX = 43   NGY = 43   NGZ = 47
  (NGX  =168   NGY  =168   NGZ  =192)
  gives a total of  86903 points

 initial charge density was supplied:
 charge density of overlapping atoms calculated
 number of electron     336.0000000 magnetization 
 keeping initial charge density in first step


--------------------------------------------------------------------------------------------------------


 Maximum index for augmentation-charges         1035 (set IRDMAX)


--------------------------------------------------------------------------------------------------------


 First call to EWALD:  gamma=   0.159
 Maximum number of real-space cells 3x 3x 3
 Maximum number of reciprocal cells 3x 3x 3

    FEWALD:  cpu time    0.0024: real time    0.0024


--------------------------------------- Iteration      1(   1)  ---------------------------------------


    POTLOK:  cpu time    0.0842: real time    0.1294
    SETDIJ:  cpu time    0.0069: real time    0.0069
     EDDAV:  cpu time    1.4793: real time    1.6427
       DOS:  cpu time    0.0011: real time    0.0012
    --------------------------------------------
      LOOP:  cpu time    1.5715: real time    1.7801

 eigenvalue-minimisations  :   480
 total energy-change (2. order) : 0.2185633E+04  (-0.1465921E+05)
 number of electron     336.0000000 magnetization 
 augmentation part      336.0000000 magnetization 

 Free energy of the ion-electron system (eV)
  ---------------------------------------------------
  alpha Z        PSCENC =       571.58137139
  Ewald energy   TEWEN  =    -15176.60482811
  -Hartree energ DENC   =     -5222.20878588
  -exchange      EXHF   =         0.00000000
  -V(xc)+E(xc)   XCENC  =       902.89026205
  PAW double counting   =     11325.89559204   -11101.35246459
  entropy T*S    EENTRO =        -0.08075078
  eigenvalues    EBANDS =      -237.28548280
  atomic energy  EATOM  =     21122.79792691
  Solvation  Ediel_sol  =         0.00000000
  ---------------------------------------------------
  free energy    TOTEN  =      2185.63284024 eV

  energy without entropy =     2185.71359102  energy(sigma->0) =     2185.67321563


--------------------------------------------------------------------------------------------------------




--------------------------------------- Iteration      1(   2)  ---------------------------------------


     EDDAV:  cpu time    1.8949: real time    1.9008
       DOS:  cpu time    0.0002: real time    0.0002
    --------------------------------------------
      LOOP:  cpu time    1.8952: real time    1.9010

 eigenvalue-minimisations  :   660
 total energy-change (2. order) :-0.2256649E+04  (-0.2193267E+04)
 number of electron     336.0000000 magnetization 
 augmentation part      336.0000000 magnetization 

 Free energy of the ion-electron system (eV)
  ---------------------------------------------------
  alpha Z        PSCENC =       571.58137139
  Ewald energy   TEWEN  =    -15176.60482811
  -Hartree energ DENC   =     -5222.20878588
  -exchange      EXHF   =         0.00000000
  -V(xc)+E(xc)   XCENC  =       902.89026205
  PAW double counting   =     11325.89559204   -11101.35246459
  entropy T*S    EENTRO =        -0.00000000
  eigenvalues    EBANDS =     -2494.01536336
  atomic energy  EATOM  =     21122.79792691
  Solvation  Ediel_sol  =         0.00000000
  ---------------------------------------------------
  free energy    TOTEN  =       -71.01628954 eV

  energy without entropy =      -71.01628954  energy(sigma->0) =      -71.01628954


--------------------------------------------------------------------------------------------------------




--------------------------------------- Iteration      1(   3)  ---------------------------------------


     EDDAV:  cpu time    1.8904: real time    1.8943
       DOS:  cpu time    0.0002: real time    0.0001
    --------------------------------------------
      LOOP:  cpu time    1.8905: real time    1.8944

 eigenvalue-minimisations  :   660
 total energy-change (2. order) :-0.1916245E+03  (-0.1909143E+03)
 number of electron     336.0000000 magnetization 
 augmentation part      336.0000000 magnetization 

 Free energy of the ion-electron system (eV)
  ---------------------------------------------------
  alpha Z        PSCENC =       571.58137139
  Ewald energy   TEWEN  =    -15176.60482811
  -Hartree energ DENC   =     -5222.20878588
  -exchange      EXHF   =         0.00000000
  -V(xc)+E(xc)   XCENC  =       902.89026205
  PAW double counting   =     11325.89559204   -11101.35246459
  entropy T*S    EENTRO =        -0.00000000
  eigenvalues    EBANDS =     -2685.63987840
  atomic energy  EATOM  =     21122.79792691
  Solvation  Ediel_sol  =         0.00000000
  ---------------------------------------------------
  free energy    TOTEN  =      -262.64080458 eV

  energy without entropy =     -262.64080458  energy(sigma->0) =     -262.64080458


--------------------------------------------------------------------------------------------------------




--------------------------------------- Iteration      1(   4)  ---------------------------------------


     EDDAV:  cpu time    2.6835: real time    2.6873
       DOS:  cpu time    0.0008: real time    0.0008
    --------------------------------------------
      LOOP:  cpu time    2.6844: real time    2.6882

 eigenvalue-minimisations  :   960
 total energy-change (2. order) :-0.7068261E+01  (-0.7058630E+01)
 number of electron     336.0000000 magnetization 
 augmentation part      336.0000000 magnetization 

 Free energy of the ion-electron system (eV)
  ---------------------------------------------------
  alpha Z        PSCENC =       571.58137139
  Ewald energy   TEWEN  =    -15176.60482811
  -Hartree energ DENC   =     -5222.20878588
  -exchange      EXHF   =         0.00000000
  -V(xc)+E(xc)   XCENC  =       902.89026205
  PAW double counting   =     11325.89559204   -11101.35246459
  entropy T*S    EENTRO =        -0.00000000
  eigenvalues    EBANDS =     -2692.70813962
  atomic energy  EATOM  =     21122.79792691
  Solvation  Ediel_sol  =         0.00000000
  ---------------------------------------------------
  free energy    TOTEN  =      -269.70906580 eV

  energy without entropy =     -269.70906580  energy(sigma->0) =     -269.70906580


--------------------------------------------------------------------------------------------------------




--------------------------------------- Iteration      1(   5)  ---------------------------------------


     EDDAV:  cpu time    1.8755: real time    1.8792
       DOS:  cpu time    0.0002: real time    0.0002
    CHARGE:  cpu time    0.1234: real time    0.1234
    MIXING:  cpu time    0.0034: real time    0.0034
    --------------------------------------------
      LOOP:  cpu time    2.0026: real time    2.0064

 eigenvalue-minimisations  :   660
 total energy-change (2. order) :-0.5660019E-01  (-0.5659929E-01)
 number of electron     335.9999981 magnetization 
 augmentation part      -21.7253029 magnetization 

 Broyden mixing:
  rms(total) = 0.13248E+01    rms(broyden)= 0.13248E+01
  rms(prec ) = 0.19416E+01
  weight for this iteration     100.00

 Free energy of the ion-electron system (eV)
  ---------------------------------------------------
  alpha Z        PSCENC =       571.58137139
  Ewald energy   TEWEN  =    -15176.60482811
  -Hartree energ DENC   =     -5222.20878588
  -exchange      EXHF   =         0.00000000
  -V(xc)+E(xc)   XCENC  =       902.89026205
  PAW double counting   =     11325.89559204   -11101.35246459
  entropy T*S    EENTRO =        -0.00000000
  eigenvalues    EBANDS =     -2692.76473980
  atomic energy  EATOM  =     21122.79792691
  Solvation  Ediel_sol  =         0.00000000
  ---------------------------------------------------
  free energy    TOTEN  =      -269.76566598 eV

  energy without entropy =     -269.76566598  energy(sigma->0) =     -269.76566598


--------------------------------------------------------------------------------------------------------




--------------------------------------- Iteration      1(   6)  ---------------------------------------


    POTLOK:  cpu time    0.0649: real time    0.0685
    SETDIJ:  cpu time    0.0060: real time    0.0061
     EDDAV:  cpu time    1.7521: real time    1.7525
       DOS:  cpu time    0.0009: real time    0.0010
    CHARGE:  cpu time    0.1203: real time    0.1203
    MIXING:  cpu time    0.0040: real time    0.0841
    --------------------------------------------
      LOOP:  cpu time    1.9482: real time    2.0324

 eigenvalue-minimisations  :   600
 total energy-change (2. order) : 0.8896599E+01  (-0.7958129E+00)
 number of electron     335.9999982 magnetization 
 augmentation part      -21.3113393 magnetization 

 Broyden mixing:
  rms(total) = 0.85338E+00    rms(broyden)= 0.85338E+00
  rms(prec ) = 0.12013E+01
  weight for this iteration     100.00

 eigenvalues of (default mixing * dielectric matrix)
  average eigenvalue GAMMA=   2.2048
  2.2048

 Free energy of the ion-electron system (eV)
  ---------------------------------------------------
  alpha Z        PSCENC =       571.58137139
  Ewald energy   TEWEN  =    -15176.60482811
  -Hartree energ DENC   =     -5242.64000228
  -exchange      EXHF   =         0.00000000
  -V(xc)+E(xc)   XCENC  =       907.91661007
  PAW double counting   =     11489.64286045   -11273.54218177
  entropy T*S    EENTRO =        -0.00000000
  eigenvalues    EBANDS =     -2660.02082324
  atomic energy  EATOM  =     21122.79792691
  Solvation  Ediel_sol  =         0.00000000
  ---------------------------------------------------
  free energy    TOTEN  =      -260.86906658 eV

  energy without entropy =     -260.86906658  energy(sigma->0) =     -260.86906658


--------------------------------------------------------------------------------------------------------




--------------------------------------- Iteration      1(   7)  ---------------------------------------


    POTLOK:  cpu time    0.0645: real time    0.0680
    SETDIJ:  cpu time    0.0059: real time    0.0059
     EDDAV:  cpu time    1.7447: real time    1.7449
       DOS:  cpu time    0.0002: real time    0.0001
    CHARGE:  cpu time    0.1205: real time    0.1205
    MIXING:  cpu time    0.0020: real time    0.0026
    --------------------------------------------
      LOOP:  cpu time    1.9377: real time    1.9421

 eigenvalue-minimisations  :   600
 total energy-change (2. order) : 0.3265269E+01  (-0.1583525E+01)
 number of electron     335.9999982 magnetization 
 augmentation part      -21.1235181 magnetization 

 Broyden mixing:
  rms(total) = 0.44405E+00    rms(broyden)= 0.44405E+00
  rms(prec ) = 0.53367E+00
  weight for this iteration     100.00

 eigenvalues of (default mixing * dielectric matrix)
  average eigenvalue GAMMA=   1.9995
  1.9995  1.9995

 Free energy of the ion-electron system (eV)
  ---------------------------------------------------
  alpha Z        PSCENC =       571.58137139
  Ewald energy   TEWEN  =    -15176.60482811
  -Hartree energ DENC   =     -5278.79796439
  -exchange      EXHF   =         0.00000000
  -V(xc)+E(xc)   XCENC  =       915.13314013
  PAW double counting   =     11744.16019454   -11540.30214816
  entropy T*S    EENTRO =        -0.00000000
  eigenvalues    EBANDS =     -2615.57148992
  atomic energy  EATOM  =     21122.79792691
  Solvation  Ediel_sol  =         0.00000000
  ---------------------------------------------------
  free energy    TOTEN  =      -257.60379762 eV

  energy without entropy =     -257.60379762  energy(sigma->0) =     -257.60379762


--------------------------------------------------------------------------------------------------------




--------------------------------------- Iteration      1(   8)  ---------------------------------------


    POTLOK:  cpu time    0.0690: real time    0.0693
    SETDIJ:  cpu time    0.0054: real time    0.0054
     EDDAV:  cpu time    1.7432: real time    1.7435
       DOS:  cpu time    0.0002: real time    0.0002
    CHARGE:  cpu time    0.1220: real time    0.1220
    MIXING:  cpu time    0.0020: real time    0.0028
    --------------------------------------------
      LOOP:  cpu time    1.9420: real time    1.9433

 eigenvalue-minimisations  :   600
 total energy-change (2. order) :-0.1439293E+00  (-0.2301041E+00)
 number of electron     335.9999982 magnetization 
 augmentation part      -21.2911053 magnetization 

 Broyden mixing:
  rms(total) = 0.29222E+00    rms(broyden)= 0.29222E+00
  rms(prec ) = 0.36992E+00
  weight for this iteration     100.00

 eigenvalues of (default mixing * dielectric matrix)
  average eigenvalue GAMMA=   2.4831
  4.4020  1.5237  1.5237

 Free energy of the ion-electron system (eV)
  ---------------------------------------------------
  alpha Z        PSCENC =       571.58137139
  Ewald energy   TEWEN  =    -15176.60482811
  -Hartree energ DENC   =     -5288.18869619
  -exchange      EXHF   =         0.00000000
  -V(xc)+E(xc)   XCENC  =       915.04128151
  PAW double counting   =     11776.32224510   -11569.78612059
  entropy T*S    EENTRO =        -0.00000000
  eigenvalues    EBANDS =     -2608.91090693
  atomic energy  EATOM  =     21122.79792691
  Solvation  Ediel_sol  =         0.00000000
  ---------------------------------------------------
  free energy    TOTEN  =      -257.74772692 eV

  energy without entropy =     -257.74772692  energy(sigma->0) =     -257.74772692


--------------------------------------------------------------------------------------------------------




--------------------------------------- Iteration      1(   9)  ---------------------------------------


    POTLOK:  cpu time    0.0639: real time    0.0673
    SETDIJ:  cpu time    0.0055: real time    0.0055
     EDDAV:  cpu time    1.7527: real time    1.7530
       DOS:  cpu time    0.0009: real time    0.0009
    CHARGE:  cpu time    0.1219: real time    0.1220
    MIXING:  cpu time    0.0036: real time    0.0036
    --------------------------------------------
      LOOP:  cpu time    1.9486: real time    1.9522

 eigenvalue-minimisations  :   600
 total energy-change (2. order) :-0.3376597E-01  (-0.1104893E+00)
 number of electron     335.9999982 magnetization 
 augmentation part      -21.1062586 magnetization 

 Broyden mixing:
  rms(total) = 0.14092E+00    rms(broyden)= 0.14092E+00
  rms(prec ) = 0.17134E+00
  weight for this iteration     100.00

 eigenvalues of (default mixing * dielectric matrix)
  average eigenvalue GAMMA=   2.1992
  4.2607  2.1972  1.1694  1.1694

 Free energy of the ion-electron system (eV)
  ---------------------------------------------------
  alpha Z        PSCENC =       571.58137139
  Ewald energy   TEWEN  =    -15176.60482811
  -Hartree energ DENC   =     -5305.34319314
  -exchange      EXHF   =         0.00000000
  -V(xc)+E(xc)   XCENC  =       918.50195797
  PAW double counting   =     11913.79069958   -11709.81099750
  entropy T*S    EENTRO =        -0.00000000
  eigenvalues    EBANDS =     -2592.69442998
  atomic energy  EATOM  =     21122.79792691
  Solvation  Ediel_sol  =         0.00000000
  ---------------------------------------------------
  free energy    TOTEN  =      -257.78149288 eV

  energy without entropy =     -257.78149288  energy(sigma->0) =     -257.78149288


--------------------------------------------------------------------------------------------------------




--------------------------------------- Iteration      1(  10)  ---------------------------------------


    POTLOK:  cpu time    0.0659: real time    0.0698
    SETDIJ:  cpu time    0.0058: real time    0.0058
     EDDAV:  cpu time    1.7432: real time    1.7435
       DOS:  cpu time    0.0002: real time    0.0001
    CHARGE:  cpu time    0.1216: real time    0.1216
    MIXING:  cpu time    0.0022: real time    0.0022
    --------------------------------------------
      LOOP:  cpu time    1.9389: real time    1.9431

 eigenvalue-minimisations  :   600
 total energy-change (2. order) : 0.2236163E-01  (-0.1774020E-01)
 number of electron     335.9999982 magnetization 
 augmentation part      -21.1997320 magnetization 

 Broyden mixing:
  rms(total) = 0.58522E-01    rms(broyden)= 0.58522E-01
  rms(prec ) = 0.71402E-01
  weight for this iteration     100.00

 eigenvalues of (default mixing * dielectric matrix)
  average eigenvalue GAMMA=   2.3715
  5.0631  2.8624  1.7865  1.0728  1.0728

 Free energy of the ion-electron system (eV)
  ---------------------------------------------------
  alpha Z        PSCENC =       571.58137139
  Ewald energy   TEWEN  =    -15176.60482811
  -Hartree energ DENC   =     -5305.63607702
  -exchange      EXHF   =         0.00000000
  -V(xc)+E(xc)   XCENC  =       918.42018214
  PAW double counting   =     11921.60440892   -11716.26960427
  entropy T*S    EENTRO =        -0.00000000
  eigenvalues    EBANDS =     -2593.65251123
  atomic energy  EATOM  =     21122.79792691
  Solvation  Ediel_sol  =         0.00000000
  ---------------------------------------------------
  free energy    TOTEN  =      -257.75913126 eV

  energy without entropy =     -257.75913126  energy(sigma->0) =     -257.75913126


--------------------------------------------------------------------------------------------------------




--------------------------------------- Iteration      1(  11)  ---------------------------------------


    POTLOK:  cpu time    0.0637: real time    0.0669
    SETDIJ:  cpu time    0.0055: real time    0.0055
     EDDAV:  cpu time    2.0421: real time    2.0425
       DOS:  cpu time    0.0009: real time    0.0009
    CHARGE:  cpu time    0.1226: real time    0.1227
    MIXING:  cpu time    0.0038: real time    0.0038
    --------------------------------------------
      LOOP:  cpu time    2.2387: real time    2.2424

 eigenvalue-minimisations  :   720
 total energy-change (2. order) :-0.4897444E-02  (-0.6686549E-02)
 number of electron     335.9999982 magnetization 
 augmentation part      -21.1981014 magnetization 

 Broyden mixing:
  rms(total) = 0.17978E-01    rms(broyden)= 0.17977E-01
  rms(prec ) = 0.24643E-01
  weight for this iteration     100.00

 eigenvalues of (default mixing * dielectric matrix)
  average eigenvalue GAMMA=   2.2109
  5.1374  2.3434  2.3434  1.2702  1.2702  0.9006

 Free energy of the ion-electron system (eV)
  ---------------------------------------------------
  alpha Z        PSCENC =       571.58137139
  Ewald energy   TEWEN  =    -15176.60482811
  -Hartree energ DENC   =     -5306.48124423
  -exchange      EXHF   =         0.00000000
  -V(xc)+E(xc)   XCENC  =       918.88012485
  PAW double counting   =     11939.69876504   -11734.01770074
  entropy T*S    EENTRO =        -0.00000000
  eigenvalues    EBANDS =     -2593.61844381
  atomic energy  EATOM  =     21122.79792691
  Solvation  Ediel_sol  =         0.00000000
  ---------------------------------------------------
  free energy    TOTEN  =      -257.76402870 eV

  energy without entropy =     -257.76402870  energy(sigma->0) =     -257.76402870


--------------------------------------------------------------------------------------------------------




--------------------------------------- Iteration      1(  12)  ---------------------------------------


    POTLOK:  cpu time    0.0662: real time    0.0696
    SETDIJ:  cpu time    0.0060: real time    0.0060
     EDDAV:  cpu time    1.7494: real time    1.7498
       DOS:  cpu time    0.0002: real time    0.0002
    CHARGE:  cpu time    0.1218: real time    0.1218
    MIXING:  cpu time    0.0021: real time    0.0021
    --------------------------------------------
      LOOP:  cpu time    1.9456: real time    1.9494

 eigenvalue-minimisations  :   600
 total energy-change (2. order) : 0.9148473E-04  (-0.1067787E-02)
 number of electron     335.9999982 magnetization 
 augmentation part      -21.1900080 magnetization 

 Broyden mixing:
  rms(total) = 0.11357E-01    rms(broyden)= 0.11357E-01
  rms(prec ) = 0.15309E-01
  weight for this iteration     100.00

 eigenvalues of (default mixing * dielectric matrix)
  average eigenvalue GAMMA=   2.0355
  5.0256  2.4469  2.4469  1.3266  1.3266  0.8379  0.8379

 Free energy of the ion-electron system (eV)
  ---------------------------------------------------
  alpha Z        PSCENC =       571.58137139
  Ewald energy   TEWEN  =    -15176.60482811
  -Hartree energ DENC   =     -5308.69799295
  -exchange      EXHF   =         0.00000000
  -V(xc)+E(xc)   XCENC  =       919.02716006
  PAW double counting   =     11943.36130878   -11737.80379013
  entropy T*S    EENTRO =        -0.00000000
  eigenvalues    EBANDS =     -2591.42509316
  atomic energy  EATOM  =     21122.79792691
  Solvation  Ediel_sol  =         0.00000000
  ---------------------------------------------------
  free energy    TOTEN  =      -257.76393722 eV

  energy without entropy =     -257.76393722  energy(sigma->0) =     -257.76393722


--------------------------------------------------------------------------------------------------------




--------------------------------------- Iteration      1(  13)  ---------------------------------------


    POTLOK:  cpu time    0.0658: real time    0.0692
    SETDIJ:  cpu time    0.0055: real time    0.0055
     EDDAV:  cpu time    1.8899: real time    1.8902
       DOS:  cpu time    0.0002: real time    0.0002
    CHARGE:  cpu time    0.1203: real time    0.1203
    MIXING:  cpu time    0.0022: real time    0.0022
    --------------------------------------------
      LOOP:  cpu time    2.0838: real time    2.0876

 eigenvalue-minimisations  :   660
 total energy-change (2. order) : 0.3885609E-03  (-0.9655462E-04)
 number of electron     335.9999982 magnetization 
 augmentation part      -21.1917371 magnetization 

 Broyden mixing:
  rms(total) = 0.73679E-02    rms(broyden)= 0.73679E-02
  rms(prec ) = 0.91200E-02
  weight for this iteration     100.00

 eigenvalues of (default mixing * dielectric matrix)
  average eigenvalue GAMMA=   2.0876
  5.0278  3.5315  1.8785  1.8785  1.2534  1.2534  0.9388  0.9388

 Free energy of the ion-electron system (eV)
  ---------------------------------------------------
  alpha Z        PSCENC =       571.58137139
  Ewald energy   TEWEN  =    -15176.60482811
  -Hartree energ DENC   =     -5309.05514474
  -exchange      EXHF   =         0.00000000
  -V(xc)+E(xc)   XCENC  =       919.00933552
  PAW double counting   =     11941.96430331   -11736.35750243
  entropy T*S    EENTRO =        -0.00000000
  eigenvalues    EBANDS =     -2591.09901051
  atomic energy  EATOM  =     21122.79792691
  Solvation  Ediel_sol  =         0.00000000
  ---------------------------------------------------
  free energy    TOTEN  =      -257.76354865 eV

  energy without entropy =     -257.76354865  energy(sigma->0) =     -257.76354865


--------------------------------------------------------------------------------------------------------




--------------------------------------- Iteration      1(  14)  ---------------------------------------


    POTLOK:  cpu time    0.0695: real time    0.0698
    SETDIJ:  cpu time    0.0055: real time    0.0055
     EDDAV:  cpu time    2.2090: real time    2.2094
       DOS:  cpu time    0.0008: real time    0.0008
    CHARGE:  cpu time    0.1218: real time    0.1219
    MIXING:  cpu time    0.0040: real time    0.0040
    --------------------------------------------
      LOOP:  cpu time    2.4106: real time    2.4114

 eigenvalue-minimisations  :   780
 total energy-change (2. order) :-0.8863369E-04  (-0.7116738E-04)
 number of electron     335.9999982 magnetization 
 augmentation part      -21.1932823 magnetization 

 Broyden mixing:
  rms(total) = 0.42654E-02    rms(broyden)= 0.42654E-02
  rms(prec ) = 0.50479E-02
  weight for this iteration     100.00

 eigenvalues of (default mixing * dielectric matrix)
  average eigenvalue GAMMA=   2.1609
  4.9200  4.2765  2.3558  2.3558  1.3511  1.3511  0.9047  0.9663  0.9663

 Free energy of the ion-electron system (eV)
  ---------------------------------------------------
  alpha Z        PSCENC =       571.58137139
  Ewald energy   TEWEN  =    -15176.60482811
  -Hartree energ DENC   =     -5309.40563910
  -exchange      EXHF   =         0.00000000
  -V(xc)+E(xc)   XCENC  =       919.00987814
  PAW double counting   =     11940.94276309   -11735.23565508
  entropy T*S    EENTRO =        -0.00000000
  eigenvalues    EBANDS =     -2590.84945453
  atomic energy  EATOM  =     21122.79792691
  Solvation  Ediel_sol  =         0.00000000
  ---------------------------------------------------
  free energy    TOTEN  =      -257.76363729 eV

  energy without entropy =     -257.76363729  energy(sigma->0) =     -257.76363729


--------------------------------------------------------------------------------------------------------




--------------------------------------- Iteration      1(  15)  ---------------------------------------


    POTLOK:  cpu time    0.0657: real time    0.0690
    SETDIJ:  cpu time    0.0057: real time    0.0057
     EDDAV:  cpu time    1.7518: real time    1.7523
       DOS:  cpu time    0.0009: real time    0.0010
    CHARGE:  cpu time    0.1207: real time    0.1207
    MIXING:  cpu time    0.0040: real time    0.0040
    --------------------------------------------
      LOOP:  cpu time    1.9487: real time    1.9527

 eigenvalue-minimisations  :   600
 total energy-change (2. order) :-0.3038746E-04  (-0.2316552E-04)
 number of electron     335.9999982 magnetization 
 augmentation part      -21.1916083 magnetization 

 Broyden mixing:
  rms(total) = 0.17143E-02    rms(broyden)= 0.17143E-02
  rms(prec ) = 0.23472E-02
  weight for this iteration     100.00

 eigenvalues of (default mixing * dielectric matrix)
  average eigenvalue GAMMA=   2.1776
  4.9945  4.7356  2.5682  2.5682  1.4716  1.4716  1.0320  1.0320  0.9511  0.9511

 Free energy of the ion-electron system (eV)
  ---------------------------------------------------
  alpha Z        PSCENC =       571.58137139
  Ewald energy   TEWEN  =    -15176.60482811
  -Hartree energ DENC   =     -5309.71610383
  -exchange      EXHF   =         0.00000000
  -V(xc)+E(xc)   XCENC  =       919.02166718
  PAW double counting   =     11940.26554371   -11734.58437311
  entropy T*S    EENTRO =        -0.00000000
  eigenvalues    EBANDS =     -2590.52487181
  atomic energy  EATOM  =     21122.79792691
  Solvation  Ediel_sol  =         0.00000000
  ---------------------------------------------------
  free energy    TOTEN  =      -257.76366768 eV

  energy without entropy =     -257.76366768  energy(sigma->0) =     -257.76366768


--------------------------------------------------------------------------------------------------------




--------------------------------------- Iteration      1(  16)  ---------------------------------------


    POTLOK:  cpu time    0.0650: real time    0.0681
    SETDIJ:  cpu time    0.0058: real time    0.0058
     EDDAV:  cpu time    2.0376: real time    2.0379
       DOS:  cpu time    0.0002: real time    0.0002
    --------------------------------------------
      LOOP:  cpu time    2.1085: real time    2.1120

 eigenvalue-minimisations  :   720
 total energy-change (2. order) :-0.3111618E-05  (-0.4903888E-05)
 number of electron     335.9999982 magnetization 
 augmentation part      -21.1916083 magnetization 

 Free energy of the ion-electron system (eV)
  ---------------------------------------------------
  alpha Z        PSCENC =       571.58137139
  Ewald energy   TEWEN  =    -15176.60482811
  -Hartree energ DENC   =     -5309.58576563
  -exchange      EXHF   =         0.00000000
  -V(xc)+E(xc)   XCENC  =       919.01983019
  PAW double counting   =     11939.74657392   -11734.07938301
  entropy T*S    EENTRO =        -0.00000000
  eigenvalues    EBANDS =     -2590.63939645
  atomic energy  EATOM  =     21122.79792691
  Solvation  Ediel_sol  =         0.00000000
  ---------------------------------------------------
  free energy    TOTEN  =      -257.76367079 eV

  energy without entropy =     -257.76367079  energy(sigma->0) =     -257.76367079


--------------------------------------------------------------------------------------------------------




 average (electrostatic) potential at core
  the test charge radii are     0.9406  0.9748  1.1987
  (the norm of the test charge is              1.0000)
       1 -93.8854       2 -93.8855       3 -93.8855       4 -93.8895       5 -93.8895
       6 -93.8895       7 -93.4982       8 -93.4981       9 -93.4980      10 -93.5287
      11 -93.5288      12 -93.5286      13 -93.8219      14 -93.8219      15 -93.8218
      16 -93.5574      17 -93.5574      18 -93.5574      19 -93.9583      20 -93.9582
      21 -93.9583      22 -93.8703      23 -93.8703      24 -93.8702      25 -93.0049
      26 -93.0049      27 -93.0049      28 -93.5764      29 -93.5764      30 -93.5764
      31 -94.0318      32 -94.0319      33 -94.0319      34 -93.8311      35 -93.8311
      36 -93.8311      37 -28.5584      38 -28.5586      39 -28.5585      40 -28.4257
      41 -28.4257      42 -28.4257      43 -28.5440      44 -28.5440      45 -28.5440
      46 -28.5178      47 -28.5179      48 -28.5177      49 -28.5830      50 -28.5829
      51 -28.5829      52 -28.3746      53 -28.3745      54 -28.3746      55 -40.5304
      56 -40.9923      57 -40.6918      58 -41.0960      59 -40.9029      60 -40.9064
 
 
 
 E-fermi :   0.4115     XC(G=0):  -8.0450     alpha+bet : -8.1532


 k-point     1 :       0.0000    0.0000    0.0000
  band No.  band energies     occupation 
      1     -41.5465      2.00000
      2     -41.4430      2.00000
      3     -41.3671      2.00000
      4     -41.3584      2.00000
      5     -41.1420      2.00000
      6     -40.9884      2.00000
      7     -21.6888      2.00000
      8     -21.6433      2.00000
      9     -21.6433      2.00000
     10     -21.5535      2.00000
     11     -21.5397      2.00000
     12     -21.5397      2.00000
     13     -21.4825      2.00000
     14     -21.4825      2.00000
     15     -21.4693      2.00000
     16     -21.4693      2.00000
     17     -21.4640      2.00000
     18     -21.4578      2.00000
     19     -21.2447      2.00000
     20     -21.2437      2.00000
     21     -21.2437      2.00000
     22     -21.1049      2.00000
     23     -21.1049      2.00000
     24     -21.0957      2.00000
     25     -13.8383      2.00000
     26     -13.6988      2.00000
     27     -13.6235      2.00000
     28     -13.5338      2.00000
     29     -13.5337      2.00000
     30     -13.4768      2.00000
     31     -13.4768      2.00000
     32     -13.4706      2.00000
     33     -13.4491      2.00000
     34     -13.4491      2.00000
     35     -13.4238      2.00000
     36     -13.4237      2.00000
     37     -13.3694      2.00000
     38     -13.3694      2.00000
     39     -13.3635      2.00000
     40     -13.3501      2.00000
     41     -13.3339      2.00000
     42     -13.3339      2.00000
     43     -13.2701      2.00000
     44     -13.2627      2.00000
     45     -13.2627      2.00000
     46     -13.2352      2.00000
     47     -13.2164      2.00000
     48     -13.1380      2.00000
     49     -13.1380      2.00000
     50     -13.0671      2.00000
     51     -13.0670      2.00000
     52     -13.0315      2.00000
     53     -13.0315      2.00000
     54     -13.0025      2.00000
     55     -12.9445      2.00000
     56     -12.9444      2.00000
     57     -12.9311      2.00000
     58     -12.5827      2.00000
     59     -12.5735      2.00000
     60     -12.5735      2.00000
     61      -3.2600      2.00000
     62      -3.1573      2.00000
     63      -3.0335      2.00000
     64      -3.0335      2.00000
     65      -2.9322      2.00000
     66      -2.8918      2.00000
     67      -2.8918      2.00000
     68      -2.8871      2.00000
     69      -2.8167      2.00000
     70      -2.7960      2.00000
     71      -2.7959      2.00000
     72      -2.7595      2.00000
     73      -2.7595      2.00000
     74      -2.6933      2.00000
     75      -2.6933      2.00000
     76      -2.6871      2.00000
     77      -2.6657      2.00000
     78      -2.6657      2.00000
     79      -2.6247      2.00000
     80      -2.5706      2.00000
     81      -2.5706      2.00000
     82      -2.5287      2.00000
     83      -2.5286      2.00000
     84      -2.4865      2.00000
     85      -2.4865      2.00000
     86      -2.4277      2.00000
     87      -2.4091      2.00000
     88      -2.4091      2.00000
     89      -2.3516      2.00000
     90      -2.3310      2.00000
     91      -2.3293      2.00000
     92      -2.3293      2.00000
     93      -2.2856      2.00000
     94      -2.2454      2.00000
     95      -2.2057      2.00000
     96      -2.2056      2.00000
     97      -2.1758      2.00000
     98      -2.1253      2.00000
     99      -2.1253      2.00000
    100      -2.0713      2.00000
    101      -2.0154      2.00000
    102      -2.0154      2.00000
    103      -1.9289      2.00000
    104      -1.9104      2.00000
    105      -1.8981      2.00000
    106      -1.8981      2.00000
    107      -1.8897      2.00000
    108      -1.8571      2.00000
    109      -1.8570      2.00000
    110      -1.8198      2.00000
    111      -1.7555      2.00000
    112      -1.7555      2.00000
    113      -1.6987      2.00000
    114      -1.6987      2.00000
    115      -1.6814      2.00000
    116      -1.6330      2.00000
    117      -1.6330      2.00000
    118      -1.6248      2.00000
    119      -1.5536      2.00000
    120      -1.5174      2.00000
    121      -1.5174      2.00000
    122      -1.4738      2.00000
    123      -1.4738      2.00000
    124      -1.4512      2.00000
    125      -1.3743      2.00000
    126      -1.3486      2.00000
    127      -1.3486      2.00000
    128      -1.3436      2.00000
    129      -1.2787      2.00000
    130      -1.2645      2.00000
    131      -1.2645      2.00000
    132      -1.2356      2.00000
    133      -1.2355      2.00000
    134      -1.2030      2.00000
    135      -1.2030      2.00000
    136      -1.1592      2.00000
    137      -1.1312      2.00000
    138      -1.1311      2.00000
    139      -1.0912      2.00000
    140      -1.0539      2.00000
    141      -1.0539      2.00000
    142      -1.0274      2.00000
    143      -0.9854      2.00000
    144      -0.9854      2.00000
    145      -0.9726      2.00000
    146      -0.9284      2.00000
    147      -0.9284      2.00000
    148      -0.9028      2.00000
    149      -0.8832      2.00000
    150      -0.8832      2.00000
    151      -0.8461      2.00000
    152      -0.8179      2.00000
    153      -0.7870      2.00000
    154      -0.7869      2.00000
    155      -0.7321      2.00000
    156      -0.7321      2.00000
    157      -0.6770      2.00000
    158      -0.6751      2.00000
    159      -0.6751      2.00000
    160      -0.6438      2.00000
    161      -0.6169      2.00000
    162      -0.6169      2.00000
    163      -0.5788      2.00000
    164      -0.5527      2.00000
    165      -0.5527      2.00000
    166      -0.5485      2.00000
    167      -0.1772      2.00000
    168      -0.1772      2.00000
    169       3.9776      0.00000
    170       4.3066      0.00000
    171       4.3066      0.00000
    172       4.3763      0.00000
    173       4.3763      0.00000
    174       4.3775      0.00000
    175       4.4403      0.00000
    176       4.4403      0.00000
    177       4.5176      0.00000
    178       4.5176      0.00000
    179       4.5300      0.00000
    180       4.7311      0.00000
    181       4.7311      0.00000
    182       4.7723      0.00000
    183       4.8715      0.00000
    184       4.8715      0.00000
    185       4.8978      0.00000
    186       4.9752      0.00000
    187       5.4507      0.00000
    188       5.9899      0.00000
    189       5.9899      0.00000
    190       6.2228      0.00000
    191       6.2228      0.00000
    192       6.3566      0.00000
    193       6.3566      0.00000
    194       6.4102      0.00000
    195       6.4102      0.00000
    196       6.5006      0.00000
    197       6.5006      0.00000
    198       6.5953      0.00000
    199       6.6741      0.00000
    200       6.6741      0.00000
    201       6.6978      0.00000
    202       7.0506      0.00000
    203       7.1558      0.00000
    204       7.2467      0.00000
    205       7.2748      0.00000
    206       7.2748      0.00000
    207       7.3635      0.00000
    208       7.3635      0.00000
    209       7.4369      0.00000
    210       7.5059      0.00000
    211       7.5059      0.00000
    212       7.6148      0.00000
    213       7.6887      0.00000
    214       7.7258      0.00000
    215       7.7716      0.00000
    216       7.7716      0.00000
    217       7.9331      0.00000
    218       7.9332      0.00000
    219       8.0336      0.00000
    220       8.0337      0.00000
    221       8.0434      0.00000
    222       8.2076      0.00000
    223       8.2076      0.00000
    224       8.3363      0.00000
    225       8.3364      0.00000
    226       8.3831      0.00000
    227       8.4937      0.00000
    228       8.4937      0.00000
    229       8.6476      0.00000
    230       8.6701      0.00000
    231       8.6701      0.00000
    232       8.7719      0.00000
    233       8.8695      0.00000
    234       8.8696      0.00000
    235       9.0460      0.00000
    236       9.0460      0.00000
    237       9.0642      0.00000
    238       9.0959      0.00000
    239       9.1988      0.00000
    240       9.2015      0.00000


--------------------------------------------------------------------------------------------------------


 soft charge-density along one line, spin component           1
         0         1         2         3         4         5         6         7         8         9
 total charge-density along one line
 
 pseudopotential strength for first ion, spin component:           1
 47.851  -0.017   0.003   0.007  -0.007   0.000   0.000  -0.000
 -0.017   0.019   0.000   0.000  -0.000   0.000   0.000  -0.000
  0.003   0.000   9.156   0.001  -0.001  -0.001  -0.000   0.000
  0.007   0.000   0.001   9.156  -0.002  -0.000  -0.001   0.000
 -0.007  -0.000  -0.001  -0.002   9.157   0.000   0.000  -0.001
  0.000   0.000  -0.001  -0.000   0.000   0.035   0.000  -0.000
  0.000   0.000  -0.000  -0.001   0.000   0.000   0.035  -0.000
 -0.000  -0.000   0.000   0.000  -0.001  -0.000  -0.000   0.035
 total augmentation occupancy for first ion, spin component:           1
  1.920   0.383  -0.013  -0.028   0.030  -0.015  -0.030   0.036
  0.383   0.315   0.072   0.156  -0.170  -0.028  -0.070   0.058
 -0.013   0.072   1.763  -0.015   0.009  -0.359  -0.034   0.024
 -0.028   0.156  -0.015   1.770   0.025  -0.034  -0.347   0.048
  0.030  -0.170   0.009   0.025   1.754   0.024   0.048  -0.380
 -0.015  -0.028  -0.359  -0.034   0.024   0.104   0.022  -0.016
 -0.030  -0.070  -0.034  -0.347   0.048   0.022   0.101  -0.031
  0.036   0.058   0.024   0.048  -0.380  -0.016  -0.031   0.118


------------------------ aborting loop because EDIFF is reached ----------------------------------------


 


 total charge     
 
# of ion       s       p       d       tot
------------------------------------------
    1        1.593   3.573   0.000   5.165
    2        1.593   3.573   0.000   5.165
    3        1.593   3.573   0.000   5.165
    4        1.592   3.579   0.000   5.170
    5        1.592   3.579   0.000   5.170
    6        1.592   3.579   0.000   5.170
    7        1.591   3.587   0.000   5.178
    8        1.591   3.587   0.000   5.178
    9        1.591   3.587   0.000   5.178
   10        1.592   3.575   0.000   5.167
   11        1.592   3.575   0.000   5.167
   12        1.592   3.575   0.000   5.167
   13        1.593   3.585   0.000   5.178
   14        1.593   3.585   0.000   5.178
   15        1.593   3.585   0.000   5.178
   16        1.590   3.588   0.000   5.178
   17        1.590   3.588   0.000   5.178
   18        1.590   3.588   0.000   5.178
   19        1.592   3.577   0.000   5.169
   20        1.592   3.577   0.000   5.169
   21        1.592   3.577   0.000   5.169
   22        1.593   3.578   0.000   5.171
   23        1.593   3.578   0.000   5.171
   24        1.593   3.578   0.000   5.171
   25        1.588   3.587   0.000   5.175
   26        1.588   3.587   0.000   5.175
   27        1.588   3.587   0.000   5.175
   28        1.590   3.588   0.000   5.179
   29        1.590   3.588   0.000   5.179
   30        1.590   3.588   0.000   5.179
   31        1.596   3.564   0.000   5.160
   32        1.596   3.564   0.000   5.160
   33        1.596   3.564   0.000   5.160
   34        1.593   3.576   0.000   5.169
   35        1.593   3.576   0.000   5.169
   36        1.593   3.576   0.000   5.169
   37        0.056   0.102   0.000   0.159
   38        0.056   0.102   0.000   0.159
   39        0.056   0.102   0.000   0.159
   40        0.059   0.110   0.000   0.169
   41        0.059   0.110   0.000   0.169
   42        0.059   0.110   0.000   0.169
   43        0.056   0.102   0.000   0.158
   44        0.056   0.102   0.000   0.158
   45        0.056   0.102   0.000   0.158
   46        0.056   0.103   0.000   0.160
   47        0.056   0.103   0.000   0.160
   48        0.056   0.103   0.000   0.160
   49        0.060   0.106   0.000   0.166
   50        0.060   0.106   0.000   0.166
   51        0.060   0.106   0.000   0.166
   52        0.058   0.109   0.000   0.167
   53        0.058   0.109   0.000   0.167
   54        0.058   0.109   0.000   0.167
   55        2.122   6.129   0.688   8.939
   56        2.120   6.123   0.675   8.919
   57        2.119   6.123   0.675   8.917
   58        2.120   6.118   0.683   8.920
   59        2.121   6.127   0.683   8.932
   60        2.122   6.126   0.700   8.948
--------------------------------------------------
tot         71.076 167.513   4.104 242.694
 
    CHARGE:  cpu time    0.1199: real time    0.1199
    FORLOC:  cpu time    0.0220: real time    0.0221
    FORNL :  cpu time    0.4780: real time    0.4780
    STRESS:  cpu time    1.4892: real time    1.4893
    FORCOR:  cpu time    0.0734: real time    0.0734
    FORHAR:  cpu time    0.0330: real time    0.0330
    MIXING:  cpu time    0.0024: real time    0.0024
    OFIELD:  cpu time    0.0000: real time    0.0000

  FORCE on cell =-STRESS in cart. coord.  units (eV):
  Direction    XX          YY          ZZ          XY          YZ          ZX
  --------------------------------------------------------------------------------------
  Alpha Z   571.58137   571.58137   571.58137
  Ewald   -4937.79042 -4937.79309 -5301.09755    -0.00222    -0.00163    -0.00059
  Hartree  1844.22314  1844.22408  1621.11832     0.00064    -0.00006     0.00034
  E(xc)   -1246.21030 -1246.21025 -1246.84455     0.00002    -0.00002     0.00002
  Local   -3339.96192 -3339.96506 -2750.00013    -0.00098     0.00314    -0.00153
  n-local  2684.80963  2684.80878  2686.75784    -0.00034     0.00044    -0.00028
  augment  -619.13944  -619.14004  -619.57152    -0.00054     0.00012    -0.00006
  Kinetic  5044.65266  5044.65310  5037.58807     0.00021    -0.00020     0.00029
  Fock        0.00000     0.00000     0.00000     0.00000     0.00000     0.00000
  -------------------------------------------------------------------------------------
  Total       2.16181     2.16181    -0.46817     0.00000    -0.00000     0.00000
  in kB       2.51059     2.51059    -0.54370     0.00000    -0.00000     0.00000
  external pressure =        1.49 kB  Pullay stress =        0.00 kB


 VOLUME and BASIS-vectors are now :
 -----------------------------------------------------------------------------
  energy-cutoff  :      520.00
  volume of cell :     1379.60
      direct lattice vectors                 reciprocal lattice vectors
    11.334128968  0.000003780  0.000002558     0.088229083  0.050939039 -0.000000003
    -5.667061570  9.815647364 -0.000003655    -0.000000034  0.101878131  0.000000024
     0.000002030 -0.000002865 12.400680362    -0.000000018  0.000000020  0.080640737

  length of vectors
    11.334128968 11.334130757 12.400680362     0.101878147  0.101878131  0.080640737


 FORCES acting on ions
    electron-ion (+dipol)            ewald-force                    non-local-force                 convergence-correction
 -----------------------------------------------------------------------------------------------
   -.810E+02 0.460E+02 0.487E+02   0.814E+02 -.462E+02 -.491E+02   -.402E+00 0.122E+00 0.396E+00   -.225E-02 0.115E-02 0.103E-02
   0.607E+00 -.931E+02 0.487E+02   -.700E+00 0.935E+02 -.491E+02   0.949E-01 -.409E+00 0.396E+00   0.132E-03 -.252E-02 0.103E-02
   0.804E+02 0.471E+02 0.487E+02   -.807E+02 -.474E+02 -.491E+02   0.307E+00 0.287E+00 0.396E+00   0.212E-02 0.137E-02 0.103E-02
   0.660E+02 -.273E+02 -.697E+02   -.667E+02 0.272E+02 0.701E+02   0.673E+00 0.132E+00 -.437E+00   0.197E-02 -.140E-02 -.348E-02
   -.567E+02 -.435E+02 -.697E+02   0.569E+02 0.442E+02 0.701E+02   -.222E+00 -.648E+00 -.437E+00   -.220E-02 -.101E-02 -.348E-02
   -.935E+01 0.708E+02 -.697E+02   0.980E+01 -.714E+02 0.701E+02   -.451E+00 0.516E+00 -.437E+00   0.223E-03 0.241E-02 -.348E-02
   -.534E+02 0.349E+02 0.806E+02   0.536E+02 -.354E+02 -.810E+02   -.260E+00 0.496E+00 0.407E+00   -.206E-02 0.152E-02 0.722E-03
   -.350E+01 -.637E+02 0.806E+02   0.381E+01 0.641E+02 -.810E+02   -.299E+00 -.473E+00 0.407E+00   -.281E-03 -.255E-02 0.722E-03
   0.569E+02 0.288E+02 0.806E+02   -.574E+02 -.288E+02 -.810E+02   0.559E+00 -.225E-01 0.407E+00   0.235E-02 0.103E-02 0.722E-03
   0.537E+02 -.452E+02 -.496E+02   -.539E+02 0.457E+02 0.500E+02   0.129E+00 -.529E+00 -.444E+00   0.371E-02 -.110E-02 0.180E-02
   -.660E+02 -.240E+02 -.496E+02   0.665E+02 0.238E+02 0.500E+02   -.522E+00 0.153E+00 -.444E+00   -.281E-02 -.266E-02 0.180E-02
   0.122E+02 0.691E+02 -.496E+02   -.126E+02 -.695E+02 0.500E+02   0.393E+00 0.376E+00 -.444E+00   -.902E-03 0.376E-02 0.180E-02
   0.627E+02 -.467E+02 -.744E+02   -.632E+02 0.470E+02 0.742E+02   0.459E+00 -.276E+00 0.203E+00   0.405E-02 -.177E-02 0.111E-02
   0.909E+01 0.776E+02 -.744E+02   -.910E+01 -.782E+02 0.742E+02   0.913E-02 0.535E+00 0.203E+00   -.492E-03 0.440E-02 0.111E-02
   -.718E+02 -.309E+02 -.744E+02   0.723E+02 0.312E+02 0.742E+02   -.468E+00 -.260E+00 0.203E+00   -.356E-02 -.263E-02 0.111E-02
   -.656E+02 0.301E+02 -.551E+02   0.659E+02 -.298E+02 0.557E+02   -.286E+00 -.297E+00 -.597E+00   -.182E-02 0.134E-02 -.117E-02
   0.588E+02 0.418E+02 -.552E+02   -.587E+02 -.422E+02 0.557E+02   -.114E+00 0.396E+00 -.597E+00   0.208E-02 0.909E-03 -.117E-02
   0.675E+01 -.718E+02 -.551E+02   -.716E+01 0.719E+02 0.557E+02   0.400E+00 -.997E-01 -.597E+00   -.250E-03 -.225E-02 -.117E-02
   0.650E+02 -.339E+02 0.695E+02   -.653E+02 0.341E+02 -.696E+02   0.346E+00 -.218E+00 0.129E+00   0.377E-02 -.272E-02 -.291E-02
   -.314E+01 0.732E+02 0.695E+02   0.313E+01 -.736E+02 -.696E+02   0.158E-01 0.409E+00 0.129E+00   0.473E-03 0.463E-02 -.291E-02
   -.619E+02 -.393E+02 0.695E+02   0.622E+02 0.395E+02 -.696E+02   -.362E+00 -.191E+00 0.129E+00   -.424E-02 -.190E-02 -.291E-02
   -.637E+02 0.358E+02 -.706E+02   0.639E+02 -.362E+02 0.712E+02   -.167E+00 0.372E+00 -.584E+00   -.104E-02 0.286E-03 -.710E-03
   0.628E+02 0.373E+02 -.706E+02   -.632E+02 -.372E+02 0.712E+02   0.406E+00 -.413E-01 -.584E+00   0.769E-03 0.759E-03 -.710E-03
   0.863E+00 -.731E+02 -.706E+02   -.626E+00 0.734E+02 0.712E+02   -.239E+00 -.331E+00 -.584E+00   0.273E-03 -.105E-02 -.710E-03
   0.529E+02 -.315E+02 -.187E+02   -.540E+02 0.321E+02 0.186E+02   0.117E+01 -.666E+00 0.660E-01   -.230E-02 0.131E-02 0.117E-02
   0.820E+00 0.616E+02 -.187E+02   -.809E+00 -.629E+02 0.186E+02   -.981E-02 0.135E+01 0.660E-01   0.170E-04 -.264E-02 0.117E-02
   -.537E+02 -.301E+02 -.187E+02   0.549E+02 0.307E+02 0.186E+02   -.116E+01 -.683E+00 0.660E-01   0.228E-02 0.134E-02 0.117E-02
   0.691E+02 -.296E+02 0.525E+02   -.694E+02 0.297E+02 -.524E+02   0.375E+00 -.140E+00 -.105E+00   0.595E-03 -.492E-03 0.237E-03
   -.601E+02 -.450E+02 0.525E+02   0.605E+02 0.453E+02 -.524E+02   -.308E+00 -.255E+00 -.105E+00   -.724E-03 -.269E-03 0.237E-03
   -.890E+01 0.746E+02 0.525E+02   0.897E+01 -.750E+02 -.524E+02   -.667E-01 0.395E+00 -.105E+00   0.129E-03 0.761E-03 0.237E-03
   -.148E+03 0.861E+02 0.933E+01   0.149E+03 -.865E+02 -.941E+01   -.142E+01 0.448E+00 0.878E-01   0.610E-03 -.125E-03 -.255E-03
   -.598E+00 -.171E+03 0.933E+01   0.283E+00 0.173E+03 -.941E+01   0.324E+00 -.146E+01 0.878E-01   -.198E-03 0.591E-03 -.255E-03
   0.148E+03 0.850E+02 0.933E+01   -.150E+03 -.860E+02 -.941E+01   0.110E+01 0.101E+01 0.878E-01   -.413E-03 -.466E-03 -.255E-03
   0.565E+02 -.413E+02 0.739E+02   -.565E+02 0.418E+02 -.747E+02   0.680E-01 -.466E+00 0.870E+00   0.224E-02 -.622E-03 0.230E-02
   -.640E+02 -.282E+02 0.739E+02   0.645E+02 0.281E+02 -.747E+02   -.437E+00 0.174E+00 0.870E+00   -.166E-02 -.163E-02 0.230E-02
   0.757E+01 0.696E+02 0.739E+02   -.793E+01 -.699E+02 -.747E+02   0.369E+00 0.292E+00 0.870E+00   -.581E-03 0.225E-02 0.230E-02
   0.644E+01 -.120E+01 0.112E+01   -.588E+01 0.158E+01 -.138E+01   -.562E+00 -.385E+00 0.254E+00   0.274E-05 0.425E-04 0.486E-04
   -.218E+01 0.618E+01 0.112E+01   0.157E+01 -.588E+01 -.138E+01   0.614E+00 -.294E+00 0.254E+00   -.381E-04 -.189E-04 0.486E-04
   -.426E+01 -.498E+01 0.112E+01   0.431E+01 0.430E+01 -.138E+01   -.525E-01 0.679E+00 0.254E+00   0.354E-04 -.236E-04 0.486E-04
   0.518E+00 0.336E+01 -.312E+00   0.147E+00 -.331E+01 0.173E+00   -.665E+00 -.447E-01 0.133E+00   0.214E-04 -.623E-05 -.422E-04
   -.317E+01 -.123E+01 -.312E+00   0.280E+01 0.178E+01 0.173E+00   0.371E+00 -.553E+00 0.133E+00   -.529E-05 0.216E-04 -.422E-04
   0.265E+01 -.213E+01 -.312E+00   -.294E+01 0.153E+01 0.173E+00   0.294E+00 0.598E+00 0.133E+00   -.161E-04 -.154E-04 -.422E-04
   0.221E-01 0.145E+01 0.600E+00   -.584E+00 -.158E+01 -.598E+00   0.562E+00 0.126E+00 -.776E-02   -.431E-04 -.420E-04 -.376E-04
   -.127E+01 -.706E+00 0.600E+00   0.166E+01 0.282E+00 -.598E+00   -.390E+00 0.423E+00 -.776E-02   0.579E-04 -.163E-04 -.376E-04
   0.125E+01 -.744E+00 0.600E+00   -.107E+01 0.129E+01 -.598E+00   -.172E+00 -.550E+00 -.776E-02   -.148E-04 0.583E-04 -.376E-04
   0.462E+01 0.464E+01 -.122E+01   -.411E+01 -.477E+01 0.126E+01   -.504E+00 0.128E+00 -.371E-01   -.957E-05 0.895E-04 0.691E-04
   -.633E+01 0.168E+01 -.122E+01   0.619E+01 -.117E+01 0.126E+01   0.142E+00 -.501E+00 -.371E-01   -.727E-04 -.530E-04 0.691E-04
   0.171E+01 -.632E+01 -.122E+01   -.208E+01 0.594E+01 0.126E+01   0.363E+00 0.373E+00 -.371E-01   0.823E-04 -.365E-04 0.691E-04
   -.511E+00 0.683E+00 0.175E+01   0.106E+00 -.468E+00 -.140E+01   0.409E+00 -.215E+00 -.353E+00   0.890E-04 0.397E-04 -.477E-04
   -.336E+00 -.784E+00 0.175E+01   0.352E+00 0.326E+00 -.140E+01   -.179E-01 0.461E+00 -.353E+00   -.789E-04 0.572E-04 -.477E-04
   0.847E+00 0.101E+00 0.175E+01   -.458E+00 0.142E+00 -.140E+01   -.391E+00 -.246E+00 -.353E+00   -.101E-04 -.970E-04 -.477E-04
   -.277E+01 0.438E+01 -.247E+01   0.239E+01 -.451E+01 0.262E+01   0.378E+00 0.127E+00 -.150E+00   0.265E-04 0.929E-04 0.100E-03
   -.241E+01 -.459E+01 -.247E+01   0.271E+01 0.433E+01 0.262E+01   -.299E+00 0.264E+00 -.150E+00   -.937E-04 -.235E-04 0.100E-03
   0.518E+01 0.213E+00 -.247E+01   -.510E+01 0.179E+00 0.262E+01   -.788E-01 -.391E+00 -.150E+00   0.672E-04 -.694E-04 0.100E-03
   -.145E-02 -.685E-03 -.874E+01   -.195E-03 -.264E-03 0.805E+01   0.114E-06 -.161E-06 0.699E+00   -.127E-06 -.548E-07 0.482E-02
   0.612E-03 -.107E-02 -.459E+00   0.293E-03 -.377E-03 0.878E+00   -.687E-07 0.970E-07 -.420E+00   0.522E-07 -.886E-07 -.296E-02
   -.185E-03 -.754E-03 -.125E+01   -.344E-03 0.594E-04 0.144E+01   -.307E-07 0.433E-07 -.188E+00   -.212E-07 -.765E-07 -.124E-02
   0.736E-03 -.144E-02 0.131E+03   0.407E-03 -.323E-03 -.131E+03   -.252E-07 0.356E-07 -.154E+00   0.575E-07 -.128E-06 -.102E-01
   -.377E-03 0.177E-02 -.797E+00   -.396E-03 0.512E-03 0.587E+00   0.337E-07 -.475E-07 0.206E+00   -.256E-07 0.112E-06 0.115E-02
   -.148E-02 -.252E-03 -.107E+03   0.543E-03 -.599E-04 0.107E+03   -.478E-07 0.675E-07 -.292E+00   -.107E-06 -.319E-07 0.887E-02
 -----------------------------------------------------------------------------------------------
   0.713E-02 -.126E-01 0.652E+00   0.130E-13 0.653E-13 0.426E-13   -.107E-06 0.151E-06 -.653E+00   -.180E-06 -.304E-06 0.255E-03
 
 
 POSITION                                       TOTAL-FORCE (eV/Angst)
 -----------------------------------------------------------------------------------
     -3.66216      8.65516      4.71935        -0.001920      0.000420      0.024609
      0.00256      2.31653      4.71936         0.000596     -0.001873      0.024609
      3.65961      8.65960      4.71936         0.001324      0.001452      0.024609
      9.40144      1.13239      7.47560         0.004526      0.003319     -0.022014
      1.94703      1.10757      7.47560         0.000612     -0.005579     -0.022014
      5.65273      7.57570      7.47560        -0.005137      0.002260     -0.022014
     -3.93730      8.58086     10.94757        -0.011140     -0.004964      0.011520
      0.20449      2.11541     10.94758         0.009869     -0.007165      0.011520
      3.73283      8.93504     10.94757         0.001271      0.012129      0.011520
      9.32877      1.05314      1.52292         0.000094     -0.009981     -0.016087
      1.91472      1.21012      1.52293        -0.008691      0.004910     -0.016087
      5.75771      7.55239      1.52292         0.008597      0.005072     -0.016087
     -1.98448      7.66170      1.70995         0.004598     -0.002852     -0.013244
      0.02408      4.26618      1.70995         0.000171      0.005408     -0.013244
      1.96041      7.70341      1.70995        -0.004769     -0.002556     -0.013244
      7.65701      2.33511     10.67332         0.003340      0.008805     -0.023558
      3.86083      2.01693     10.67333         0.005955     -0.007295     -0.023558
      5.48337      5.46361     10.67333        -0.009295     -0.001510     -0.023558
     -1.89997      7.83339      7.88443         0.009394     -0.001137      0.019769
     -0.16686      4.25353      7.88443        -0.003713      0.008704      0.019769
      2.06684      7.54438      7.88443        -0.005681     -0.007567      0.019769
      7.65679      2.22050      4.41552         0.005196      0.001224     -0.026354
      3.76168      2.07442      4.41553        -0.001538     -0.005112     -0.026354
      5.58273      5.52073      4.41552        -0.003658      0.003888     -0.026354
      2.08315      5.27363      4.70818         0.016519     -0.011395      0.006784
      0.05839      8.98289      4.70818         0.001609      0.020004      0.006784
     -2.14154      5.37476      4.70817        -0.018128     -0.008608      0.006784
      3.75912      4.38453      7.70627         0.000352     -0.003376      0.015260
      7.58461      4.36789      7.70626        -0.003100      0.001383      0.015260
      5.65746      1.06323      7.70628         0.002748      0.001994      0.015260
      1.69597      5.49483     11.00246        -0.016840      0.001703      0.006623
      0.06042      8.53699     11.00246         0.006945     -0.015436      0.006623
     -1.75638      5.59948     11.00246         0.009895      0.013732      0.006623
      3.67392      4.29458      1.56341         0.000945     -0.007628      0.020128
      7.54932      4.48664      1.56341        -0.007079      0.002996      0.020128
      5.77795      1.03442      1.56341         0.006134      0.004632      0.020128
      7.67251      0.41654     12.14008         0.001596     -0.000190     -0.000896
      7.13716      6.43633     12.14008        -0.000633      0.001478     -0.000896
      2.19154      2.96279     12.14009        -0.000963     -0.001287     -0.000896
      4.04244      0.11876      6.13720         0.001137      0.000991     -0.006138
      9.21006      3.44148      6.13719        -0.001427      0.000489     -0.006138
      3.74870      6.25542      6.13719         0.000290     -0.001480     -0.006138
      1.66174      9.60131      6.44018        -0.000322      0.000581     -0.005420
     -3.47877      6.45410      6.44017        -0.000342     -0.000570     -0.005420
      1.81704      3.57589      6.44018         0.000664     -0.000011     -0.005420
     -1.62089      9.72410      3.00503         0.005916     -0.000097      0.001770
     -1.94381      3.54986      3.00502        -0.002874      0.005172      0.001770
      3.56470      6.35732      3.00503        -0.003042     -0.005075      0.001770
      3.02260      0.09905      9.47039         0.003219     -0.000148      0.003129
      9.73706      2.56812      9.47039        -0.001481      0.002862      0.003129
      4.24155      7.14848      9.47039        -0.001738     -0.002714      0.003129
      1.82002      9.75418      3.17796        -0.001597      0.001008      0.002104
     -3.69031      6.51473      3.17795        -0.000074     -0.001887      0.002104
      1.87030      3.36237      3.17796         0.001672      0.000879      0.002104
      0.00000      0.00000      0.14317         0.000000     -0.000000      0.011649
      0.00000      0.00000      6.02582        -0.000000      0.000000     -0.003906
      5.66707      3.27188      9.18851         0.000000     -0.000000      0.002488
      0.00000      6.54377      9.14490        -0.000000      0.000000     -0.031296
      5.66707      3.27188      2.98577        -0.000000      0.000000     -0.002566
      0.00000      6.54377      0.47229         0.000000     -0.000000      0.029672
 -----------------------------------------------------------------------------------
    total drift:                                0.007135     -0.012606     -0.000206


--------------------------------------------------------------------------------------------------------



  FREE ENERGIE OF THE ION-ELECTRON SYSTEM (eV)
  ---------------------------------------------------
  free  energy   TOTEN  =      -257.76367079 eV

  energy  without entropy=     -257.76367079  energy(sigma->0) =     -257.76367079
 


--------------------------------------------------------------------------------------------------------


    POTLOK:  cpu time    0.0689: real time    0.0689


--------------------------------------------------------------------------------------------------------




--------------------------------------------------------------------------------------------------------


    WAVPRE:  cpu time    0.0310: real time    0.0329
    FEWALD:  cpu time    0.0012: real time    0.0012
    ORTHCH:  cpu time    0.2361: real time    0.2362
     LOOP+:  cpu time   35.0664: real time   35.4151


--------------------------------------- Iteration      2(   1)  ---------------------------------------


    POTLOK:  cpu time    0.0659: real time    0.0680
    SETDIJ:  cpu time    0.0055: real time    0.0055
     EDDAV:  cpu time    1.7446: real time    1.7450
       DOS:  cpu time    0.0001: real time    0.0001
    CHARGE:  cpu time    0.1209: real time    0.1209
    MIXING:  cpu time    0.0017: real time    0.0017
    --------------------------------------------
      LOOP:  cpu time    1.9388: real time    1.9412

 eigenvalue-minimisations  :   600
 total energy-change (2. order) :-0.4941278E-03  (-0.7504292E-02)
 number of electron     335.9999981 magnetization 
 augmentation part      -21.1917614 magnetization 

 Broyden mixing:
  rms(total) = 0.46978E-02    rms(broyden)= 0.46972E-02
  rms(prec ) = 0.57396E-02
  weight for this iteration     100.00

 Free energy of the ion-electron system (eV)
  ---------------------------------------------------
  alpha Z        PSCENC =       571.58137139
  Ewald energy   TEWEN  =    -15174.23197302
  -Hartree energ DENC   =     -5311.77866286
  -exchange      EXHF   =         0.00000000
  -V(xc)+E(xc)   XCENC  =       919.04587011
  PAW double counting   =     11939.63628457   -11733.97961593
  entropy T*S    EENTRO =        -0.00000000
  eigenvalues    EBANDS =     -2590.83536296
  atomic energy  EATOM  =     21122.79792691
  Solvation  Ediel_sol  =         0.00000000
  ---------------------------------------------------
  free energy    TOTEN  =      -257.76416180 eV

  energy without entropy =     -257.76416180  energy(sigma->0) =     -257.76416180


--------------------------------------------------------------------------------------------------------




--------------------------------------- Iteration      2(   2)  ---------------------------------------


    POTLOK:  cpu time    0.0657: real time    0.0689
    SETDIJ:  cpu time    0.0055: real time    0.0055
     EDDAV:  cpu time    1.7509: real time    1.7512
       DOS:  cpu time    0.0009: real time    0.0009
    CHARGE:  cpu time    0.1218: real time    0.1218
    MIXING:  cpu time    0.0034: real time    0.0034
    --------------------------------------------
      LOOP:  cpu time    1.9480: real time    1.9516

 eigenvalue-minimisations  :   600
 total energy-change (2. order) :-0.2949994E-03  (-0.3379999E-03)
 number of electron     335.9999981 magnetization 
 augmentation part      -21.1927964 magnetization 

 Broyden mixing:
  rms(total) = 0.17636E-02    rms(broyden)= 0.17618E-02
  rms(prec ) = 0.25616E-02
  weight for this iteration     100.00

 eigenvalues of (default mixing * dielectric matrix)
  average eigenvalue GAMMA=   0.8629
  0.8629

 Free energy of the ion-electron system (eV)
  ---------------------------------------------------
  alpha Z        PSCENC =       571.58137139
  Ewald energy   TEWEN  =    -15174.23197302
  -Hartree energ DENC   =     -5311.89169300
  -exchange      EXHF   =         0.00000000
  -V(xc)+E(xc)   XCENC  =       919.04694259
  PAW double counting   =     11939.82557736   -11734.16766062
  entropy T*S    EENTRO =        -0.00000000
  eigenvalues    EBANDS =     -2590.72494842
  atomic energy  EATOM  =     21122.79792691
  Solvation  Ediel_sol  =         0.00000000
  ---------------------------------------------------
  free energy    TOTEN  =      -257.76445680 eV

  energy without entropy =     -257.76445680  energy(sigma->0) =     -257.76445680


--------------------------------------------------------------------------------------------------------




--------------------------------------- Iteration      2(   3)  ---------------------------------------


    POTLOK:  cpu time    0.0662: real time    0.0699
    SETDIJ:  cpu time    0.0058: real time    0.0058
     EDDAV:  cpu time    2.0477: real time    2.0481
       DOS:  cpu time    0.0009: real time    0.0010
    CHARGE:  cpu time    0.1221: real time    0.1221
    MIXING:  cpu time    0.0033: real time    0.0033
    --------------------------------------------
      LOOP:  cpu time    2.2460: real time    2.2502

 eigenvalue-minimisations  :   720
 total energy-change (2. order) : 0.7166513E-05  (-0.6487890E-05)
 number of electron     335.9999981 magnetization 
 augmentation part      -21.1934370 magnetization 

 Broyden mixing:
  rms(total) = 0.14052E-02    rms(broyden)= 0.14051E-02
  rms(prec ) = 0.19136E-02
  weight for this iteration     100.00

 eigenvalues of (default mixing * dielectric matrix)
  average eigenvalue GAMMA=   1.2617
  1.2617  1.2617

 Free energy of the ion-electron system (eV)
  ---------------------------------------------------
  alpha Z        PSCENC =       571.58137139
  Ewald energy   TEWEN  =    -15174.23197302
  -Hartree energ DENC   =     -5311.96117852
  -exchange      EXHF   =         0.00000000
  -V(xc)+E(xc)   XCENC  =       919.04796027
  PAW double counting   =     11939.97347540   -11734.31055653
  entropy T*S    EENTRO =        -0.00000000
  eigenvalues    EBANDS =     -2590.66147553
  atomic energy  EATOM  =     21122.79792691
  Solvation  Ediel_sol  =         0.00000000
  ---------------------------------------------------
  free energy    TOTEN  =      -257.76444964 eV

  energy without entropy =     -257.76444964  energy(sigma->0) =     -257.76444964


--------------------------------------------------------------------------------------------------------




--------------------------------------- Iteration      2(   4)  ---------------------------------------


    POTLOK:  cpu time    0.0645: real time    0.0677
    SETDIJ:  cpu time    0.0061: real time    0.0061
     EDDAV:  cpu time    1.4722: real time    1.4725
       DOS:  cpu time    0.0001: real time    0.0001
    CHARGE:  cpu time    0.1217: real time    0.1217
    MIXING:  cpu time    0.0018: real time    0.0018
    --------------------------------------------
      LOOP:  cpu time    1.6664: real time    1.6699

 eigenvalue-minimisations  :   480
 total energy-change (2. order) : 0.7264076E-05  (-0.2033699E-05)
 number of electron     335.9999981 magnetization 
 augmentation part      -21.1934916 magnetization 

 Broyden mixing:
  rms(total) = 0.69572E-03    rms(broyden)= 0.69571E-03
  rms(prec ) = 0.83348E-03
  weight for this iteration     100.00

 eigenvalues of (default mixing * dielectric matrix)
  average eigenvalue GAMMA=   1.5416
  2.5213  0.9659  1.1375

 Free energy of the ion-electron system (eV)
  ---------------------------------------------------
  alpha Z        PSCENC =       571.58137139
  Ewald energy   TEWEN  =    -15174.23197302
  -Hartree energ DENC   =     -5312.04479068
  -exchange      EXHF   =         0.00000000
  -V(xc)+E(xc)   XCENC  =       919.04976605
  PAW double counting   =     11940.19703804   -11734.52508320
  entropy T*S    EENTRO =        -0.00000000
  eigenvalues    EBANDS =     -2590.58869786
  atomic energy  EATOM  =     21122.79792691
  Solvation  Ediel_sol  =         0.00000000
  ---------------------------------------------------
  free energy    TOTEN  =      -257.76444237 eV

  energy without entropy =     -257.76444237  energy(sigma->0) =     -257.76444237


--------------------------------------------------------------------------------------------------------




--------------------------------------- Iteration      2(   5)  ---------------------------------------


    POTLOK:  cpu time    0.0655: real time    0.0688
    SETDIJ:  cpu time    0.0054: real time    0.0054
     EDDAV:  cpu time    1.3369: real time    1.3371
       DOS:  cpu time    0.0002: real time    0.0002
    CHARGE:  cpu time    0.1219: real time    0.1219
    MIXING:  cpu time    0.0019: real time    0.0019
    --------------------------------------------
      LOOP:  cpu time    1.5318: real time    1.5353

 eigenvalue-minimisations  :   420
 total energy-change (2. order) :-0.1214677E-05  (-0.1014416E-05)
 number of electron     335.9999981 magnetization 
 augmentation part      -21.1934098 magnetization 

 Broyden mixing:
  rms(total) = 0.43506E-03    rms(broyden)= 0.43506E-03
  rms(prec ) = 0.50148E-03
  weight for this iteration     100.00

 eigenvalues of (default mixing * dielectric matrix)
  average eigenvalue GAMMA=   1.8621
  3.6829  0.8613  1.4522  1.4522

 Free energy of the ion-electron system (eV)
  ---------------------------------------------------
  alpha Z        PSCENC =       571.58137139
  Ewald energy   TEWEN  =    -15174.23197302
  -Hartree energ DENC   =     -5312.07213096
  -exchange      EXHF   =         0.00000000
  -V(xc)+E(xc)   XCENC  =       919.05078228
  PAW double counting   =     11940.33627515   -11734.65945403
  entropy T*S    EENTRO =        -0.00000000
  eigenvalues    EBANDS =     -2590.56724130
  atomic energy  EATOM  =     21122.79792691
  Solvation  Ediel_sol  =         0.00000000
  ---------------------------------------------------
  free energy    TOTEN  =      -257.76444359 eV

  energy without entropy =     -257.76444359  energy(sigma->0) =     -257.76444359


--------------------------------------------------------------------------------------------------------




--------------------------------------- Iteration      2(   6)  ---------------------------------------


    POTLOK:  cpu time    0.0687: real time    0.0690
    SETDIJ:  cpu time    0.0054: real time    0.0054
     EDDAV:  cpu time    1.3370: real time    1.3372
       DOS:  cpu time    0.0002: real time    0.0002
    --------------------------------------------
      LOOP:  cpu time    1.4113: real time    1.4118

 eigenvalue-minimisations  :   420
 total energy-change (2. order) :-0.1046617E-05  (-0.1415318E-06)
 number of electron     335.9999981 magnetization 
 augmentation part      -21.1934098 magnetization 

 Free energy of the ion-electron system (eV)
  ---------------------------------------------------
  alpha Z        PSCENC =       571.58137139
  Ewald energy   TEWEN  =    -15174.23197302
  -Hartree energ DENC   =     -5312.07973023
  -exchange      EXHF   =         0.00000000
  -V(xc)+E(xc)   XCENC  =       919.05150696
  PAW double counting   =     11940.47400464   -11734.79355978
  entropy T*S    EENTRO =        -0.00000000
  eigenvalues    EBANDS =     -2590.56399150
  atomic energy  EATOM  =     21122.79792691
  Solvation  Ediel_sol  =         0.00000000
  ---------------------------------------------------
  free energy    TOTEN  =      -257.76444463 eV

  energy without entropy =     -257.76444463  energy(sigma->0) =     -257.76444463


--------------------------------------------------------------------------------------------------------




 average (electrostatic) potential at core
  the test charge radii are     0.9406  0.9748  1.1987
  (the norm of the test charge is              1.0000)
       1 -93.8871       2 -93.8872       3 -93.8872       4 -93.8886       5 -93.8885
       6 -93.8885       7 -93.4953       8 -93.4952       9 -93.4951      10 -93.5296
      11 -93.5297      12 -93.5295      13 -93.8231      14 -93.8231      15 -93.8230
      16 -93.5566      17 -93.5566      18 -93.5566      19 -93.9594      20 -93.9592
      21 -93.9593      22 -93.8716      23 -93.8716      24 -93.8715      25 -93.0086
      26 -93.0086      27 -93.0086      28 -93.5753      29 -93.5753      30 -93.5753
      31 -94.0240      32 -94.0242      33 -94.0241      34 -93.8323      35 -93.8323
      36 -93.8324      37 -28.5575      38 -28.5577      39 -28.5576      40 -28.4270
      41 -28.4271      42 -28.4270      43 -28.5456      44 -28.5455      45 -28.5455
      46 -28.5200      47 -28.5201      48 -28.5199      49 -28.5826      50 -28.5825
      51 -28.5825      52 -28.3766      53 -28.3765      54 -28.3766      55 -40.5270
      56 -40.9898      57 -40.6878      58 -41.0910      59 -40.9014      60 -40.9014
 
 
 
 E-fermi :   0.4104     XC(G=0):  -8.0444     alpha+bet : -8.1532


 k-point     1 :       0.0000    0.0000    0.0000
  band No.  band energies     occupation 
      1     -41.5418      2.00000
      2     -41.4409      2.00000
      3     -41.3623      2.00000
      4     -41.3571      2.00000
      5     -41.1382      2.00000
      6     -40.9853      2.00000
      7     -21.6839      2.00000
      8     -21.6392      2.00000
      9     -21.6392      2.00000
     10     -21.5521      2.00000
     11     -21.5382      2.00000
     12     -21.5382      2.00000
     13     -21.4786      2.00000
     14     -21.4785      2.00000
     15     -21.4685      2.00000
     16     -21.4685      2.00000
     17     -21.4633      2.00000
     18     -21.4536      2.00000
     19     -21.2416      2.00000
     20     -21.2404      2.00000
     21     -21.2404      2.00000
     22     -21.1023      2.00000
     23     -21.1023      2.00000
     24     -21.0931      2.00000
     25     -13.8368      2.00000
     26     -13.6975      2.00000
     27     -13.6250      2.00000
     28     -13.5316      2.00000
     29     -13.5316      2.00000
     30     -13.4745      2.00000
     31     -13.4745      2.00000
     32     -13.4721      2.00000
     33     -13.4502      2.00000
     34     -13.4501      2.00000
     35     -13.4237      2.00000
     36     -13.4236      2.00000
     37     -13.3708      2.00000
     38     -13.3708      2.00000
     39     -13.3628      2.00000
     40     -13.3501      2.00000
     41     -13.3347      2.00000
     42     -13.3347      2.00000
     43     -13.2702      2.00000
     44     -13.2639      2.00000
     45     -13.2638      2.00000
     46     -13.2354      2.00000
     47     -13.2168      2.00000
     48     -13.1373      2.00000
     49     -13.1373      2.00000
     50     -13.0660      2.00000
     51     -13.0659      2.00000
     52     -13.0313      2.00000
     53     -13.0313      2.00000
     54     -13.0017      2.00000
     55     -12.9436      2.00000
     56     -12.9435      2.00000
     57     -12.9303      2.00000
     58     -12.5866      2.00000
     59     -12.5776      2.00000
     60     -12.5776      2.00000
     61      -3.2590      2.00000
     62      -3.1536      2.00000
     63      -3.0344      2.00000
     64      -3.0344      2.00000
     65      -2.9330      2.00000
     66      -2.8932      2.00000
     67      -2.8932      2.00000
     68      -2.8869      2.00000
     69      -2.8170      2.00000
     70      -2.7963      2.00000
     71      -2.7963      2.00000
     72      -2.7598      2.00000
     73      -2.7598      2.00000
     74      -2.6932      2.00000
     75      -2.6932      2.00000
     76      -2.6874      2.00000
     77      -2.6666      2.00000
     78      -2.6666      2.00000
     79      -2.6265      2.00000
     80      -2.5710      2.00000
     81      -2.5710      2.00000
     82      -2.5292      2.00000
     83      -2.5292      2.00000
     84      -2.4852      2.00000
     85      -2.4852      2.00000
     86      -2.4284      2.00000
     87      -2.4090      2.00000
     88      -2.4089      2.00000
     89      -2.3526      2.00000
     90      -2.3314      2.00000
     91      -2.3289      2.00000
     92      -2.3289      2.00000
     93      -2.2864      2.00000
     94      -2.2456      2.00000
     95      -2.2051      2.00000
     96      -2.2050      2.00000
     97      -2.1765      2.00000
     98      -2.1243      2.00000
     99      -2.1243      2.00000
    100      -2.0717      2.00000
    101      -2.0149      2.00000
    102      -2.0149      2.00000
    103      -1.9292      2.00000
    104      -1.9106      2.00000
    105      -1.8978      2.00000
    106      -1.8978      2.00000
    107      -1.8903      2.00000
    108      -1.8573      2.00000
    109      -1.8573      2.00000
    110      -1.8191      2.00000
    111      -1.7554      2.00000
    112      -1.7554      2.00000
    113      -1.6987      2.00000
    114      -1.6986      2.00000
    115      -1.6809      2.00000
    116      -1.6335      2.00000
    117      -1.6335      2.00000
    118      -1.6247      2.00000
    119      -1.5535      2.00000
    120      -1.5176      2.00000
    121      -1.5176      2.00000
    122      -1.4743      2.00000
    123      -1.4743      2.00000
    124      -1.4529      2.00000
    125      -1.3743      2.00000
    126      -1.3499      2.00000
    127      -1.3499      2.00000
    128      -1.3429      2.00000
    129      -1.2788      2.00000
    130      -1.2651      2.00000
    131      -1.2651      2.00000
    132      -1.2364      2.00000
    133      -1.2363      2.00000
    134      -1.2013      2.00000
    135      -1.2013      2.00000
    136      -1.1586      2.00000
    137      -1.1320      2.00000
    138      -1.1320      2.00000
    139      -1.0917      2.00000
    140      -1.0538      2.00000
    141      -1.0538      2.00000
    142      -1.0282      2.00000
    143      -0.9858      2.00000
    144      -0.9858      2.00000
    145      -0.9708      2.00000
    146      -0.9291      2.00000
    147      -0.9291      2.00000
    148      -0.9031      2.00000
    149      -0.8834      2.00000
    150      -0.8834      2.00000
    151      -0.8471      2.00000
    152      -0.8171      2.00000
    153      -0.7885      2.00000
    154      -0.7885      2.00000
    155      -0.7333      2.00000
    156      -0.7333      2.00000
    157      -0.6787      2.00000
    158      -0.6761      2.00000
    159      -0.6761      2.00000
    160      -0.6454      2.00000
    161      -0.6172      2.00000
    162      -0.6172      2.00000
    163      -0.5789      2.00000
    164      -0.5512      2.00000
    165      -0.5512      2.00000
    166      -0.5490      2.00000
    167      -0.1805      2.00000
    168      -0.1805      2.00000
    169       3.9859      0.00000
    170       4.3096      0.00000
    171       4.3096      0.00000
    172       4.3778      0.00000
    173       4.3778      0.00000
    174       4.3780      0.00000
    175       4.4425      0.00000
    176       4.4425      0.00000
    177       4.5206      0.00000
    178       4.5206      0.00000
    179       4.5303      0.00000
    180       4.7341      0.00000
    181       4.7341      0.00000
    182       4.7746      0.00000
    183       4.8743      0.00000
    184       4.8743      0.00000
    185       4.9000      0.00000
    186       4.9757      0.00000
    187       5.4521      0.00000
    188       5.9926      0.00000
    189       5.9926      0.00000
    190       6.2272      0.00000
    191       6.2272      0.00000
    192       6.3599      0.00000
    193       6.3599      0.00000
    194       6.4135      0.00000
    195       6.4135      0.00000
    196       6.5044      0.00000
    197       6.5044      0.00000
    198       6.5955      0.00000
    199       6.6778      0.00000
    200       6.6778      0.00000
    201       6.6984      0.00000
    202       7.0523      0.00000
    203       7.1555      0.00000
    204       7.2481      0.00000
    205       7.2752      0.00000
    206       7.2752      0.00000
    207       7.3647      0.00000
    208       7.3647      0.00000
    209       7.4370      0.00000
    210       7.5074      0.00000
    211       7.5074      0.00000
    212       7.6144      0.00000
    213       7.6903      0.00000
    214       7.7270      0.00000
    215       7.7727      0.00000
    216       7.7727      0.00000
    217       7.9337      0.00000
    218       7.9338      0.00000
    219       8.0341      0.00000
    220       8.0341      0.00000
    221       8.0450      0.00000
    222       8.2085      0.00000
    223       8.2085      0.00000
    224       8.3360      0.00000
    225       8.3360      0.00000
    226       8.3846      0.00000
    227       8.4933      0.00000
    228       8.4933      0.00000
    229       8.6491      0.00000
    230       8.6703      0.00000
    231       8.6704      0.00000
    232       8.7720      0.00000
    233       8.8692      0.00000
    234       8.8692      0.00000
    235       9.0449      0.00000
    236       9.0449      0.00000
    237       9.0620      0.00000
    238       9.0953      0.00000
    239       9.1984      0.00000
    240       9.1991      0.00000


--------------------------------------------------------------------------------------------------------


 soft charge-density along one line, spin component           1
         0         1         2         3         4         5         6         7         8         9
 total charge-density along one line
 
 pseudopotential strength for first ion, spin component:           1
 47.851  -0.017   0.003   0.006  -0.007   0.000   0.000  -0.000
 -0.017   0.019   0.000   0.000  -0.000   0.000   0.000  -0.000
  0.003   0.000   9.156   0.001  -0.001  -0.001  -0.000   0.000
  0.006   0.000   0.001   9.156  -0.002  -0.000  -0.001   0.000
 -0.007  -0.000  -0.001  -0.002   9.157   0.000   0.000  -0.001
  0.000   0.000  -0.001  -0.000   0.000   0.035   0.000  -0.000
  0.000   0.000  -0.000  -0.001   0.000   0.000   0.035  -0.000
 -0.000  -0.000   0.000   0.000  -0.001  -0.000  -0.000   0.035
 total augmentation occupancy for first ion, spin component:           1
  1.919   0.383  -0.013  -0.028   0.030  -0.015  -0.030   0.036
  0.383   0.316   0.072   0.156  -0.171  -0.029  -0.070   0.058
 -0.013   0.072   1.763  -0.015   0.009  -0.359  -0.034   0.024
 -0.028   0.156  -0.015   1.770   0.025  -0.034  -0.347   0.048
  0.030  -0.171   0.009   0.025   1.754   0.024   0.048  -0.380
 -0.015  -0.029  -0.359  -0.034   0.024   0.104   0.022  -0.016
 -0.030  -0.070  -0.034  -0.347   0.048   0.022   0.101  -0.031
  0.036   0.058   0.024   0.048  -0.380  -0.016  -0.031   0.118


------------------------ aborting loop because EDIFF is reached ----------------------------------------


 


 total charge     
 
# of ion       s       p       d       tot
------------------------------------------
    1        1.593   3.573   0.000   5.165
    2        1.593   3.573   0.000   5.165
    3        1.593   3.573   0.000   5.165
    4        1.592   3.579   0.000   5.170
    5        1.592   3.579   0.000   5.170
    6        1.592   3.579   0.000   5.170
    7        1.591   3.587   0.000   5.178
    8        1.591   3.587   0.000   5.178
    9        1.591   3.587   0.000   5.178
   10        1.592   3.575   0.000   5.168
   11        1.592   3.575   0.000   5.168
   12        1.592   3.575   0.000   5.168
   13        1.593   3.585   0.000   5.178
   14        1.593   3.585   0.000   5.178
   15        1.593   3.585   0.000   5.178
   16        1.590   3.588   0.000   5.178
   17        1.590   3.588   0.000   5.178
   18        1.590   3.588   0.000   5.178
   19        1.592   3.577   0.000   5.169
   20        1.592   3.577   0.000   5.169
   21        1.592   3.577   0.000   5.169
   22        1.593   3.578   0.000   5.171
   23        1.593   3.578   0.000   5.171
   24        1.593   3.578   0.000   5.171
   25        1.588   3.587   0.000   5.175
   26        1.588   3.587   0.000   5.175
   27        1.588   3.587   0.000   5.175
   28        1.590   3.588   0.000   5.179
   29        1.590   3.588   0.000   5.179
   30        1.590   3.588   0.000   5.179
   31        1.596   3.564   0.000   5.160
   32        1.596   3.564   0.000   5.160
   33        1.596   3.564   0.000   5.160
   34        1.593   3.577   0.000   5.170
   35        1.593   3.577   0.000   5.170
   36        1.593   3.577   0.000   5.170
   37        0.056   0.102   0.000   0.158
   38        0.056   0.102   0.000   0.158
   39        0.056   0.102   0.000   0.158
   40        0.059   0.110   0.000   0.169
   41        0.059   0.110   0.000   0.169
   42        0.059   0.110   0.000   0.169
   43        0.056   0.102   0.000   0.158
   44        0.056   0.102   0.000   0.158
   45        0.056   0.102   0.000   0.158
   46        0.056   0.103   0.000   0.160
   47        0.056   0.103   0.000   0.160
   48        0.056   0.103   0.000   0.160
   49        0.060   0.106   0.000   0.166
   50        0.060   0.106   0.000   0.166
   51        0.060   0.106   0.000   0.166
   52        0.058   0.109   0.000   0.167
   53        0.058   0.109   0.000   0.167
   54        0.058   0.109   0.000   0.167
   55        2.122   6.129   0.689   8.940
   56        2.120   6.124   0.676   8.920
   57        2.120   6.123   0.675   8.918
   58        2.120   6.118   0.683   8.921
   59        2.121   6.127   0.684   8.933
   60        2.122   6.126   0.701   8.950
--------------------------------------------------
tot         71.077 167.517   4.109 242.703
 
    CHARGE:  cpu time    0.1208: real time    0.1208
    FORLOC:  cpu time    0.0218: real time    0.0218
    FORNL :  cpu time    0.4798: real time    0.4798
    STRESS:  cpu time    1.4867: real time    1.4868
    FORCOR:  cpu time    0.0734: real time    0.0734
    FORHAR:  cpu time    0.0324: real time    0.0324
    MIXING:  cpu time    0.0021: real time    0.0021
    OFIELD:  cpu time    0.0000: real time    0.0000

  FORCE on cell =-STRESS in cart. coord.  units (eV):
  Direction    XX          YY          ZZ          XY          YZ          ZX
  --------------------------------------------------------------------------------------
  Alpha Z   571.58137   571.58137   571.58137
  Ewald   -4935.53512 -4935.53780 -5303.23531    -0.00222    -0.00164    -0.00059
  Hartree  1845.94738  1845.94832  1620.18419     0.00064    -0.00006     0.00034
  E(xc)   -1246.23798 -1246.23794 -1246.87872     0.00002    -0.00002     0.00002
  Local   -3343.87372 -3343.87685 -2746.90321    -0.00098     0.00314    -0.00153
  n-local  2684.70637  2684.70555  2686.67505    -0.00033     0.00044    -0.00028
  augment  -619.13967  -619.14027  -619.58331    -0.00053     0.00012    -0.00006
  Kinetic  5044.81930  5044.81976  5037.78699     0.00022    -0.00017     0.00030
  Fock        0.00000     0.00000     0.00000     0.00000     0.00000     0.00000
  -------------------------------------------------------------------------------------
  Total       2.26504     2.26504    -0.37296     0.00000    -0.00000     0.00000
  in kB       2.63047     2.63047    -0.43313     0.00000    -0.00000     0.00000
  external pressure =        1.61 kB  Pullay stress =        0.00 kB


 VOLUME and BASIS-vectors are now :
 -----------------------------------------------------------------------------
  energy-cutoff  :      520.00
  volume of cell :     1379.60
      direct lattice vectors                 reciprocal lattice vectors
    11.334128968  0.000003780  0.000002558     0.088229083  0.050939039 -0.000000003
    -5.667061570  9.815647364 -0.000003655    -0.000000034  0.101878131  0.000000024
     0.000002030 -0.000002865 12.400680362    -0.000000018  0.000000020  0.080640737

  length of vectors
    11.334128968 11.334130757 12.400680362     0.101878147  0.101878131  0.080640737


 FORCES acting on ions
    electron-ion (+dipol)            ewald-force                    non-local-force                 convergence-correction
 -----------------------------------------------------------------------------------------------
   -.811E+02 0.461E+02 0.489E+02   0.815E+02 -.463E+02 -.492E+02   -.396E+00 0.119E+00 0.389E+00   0.126E-03 -.577E-04 0.885E-03
   0.602E+00 -.933E+02 0.489E+02   -.696E+00 0.937E+02 -.492E+02   0.953E-01 -.403E+00 0.389E+00   -.129E-04 0.138E-03 0.885E-03
   0.805E+02 0.472E+02 0.489E+02   -.808E+02 -.475E+02 -.492E+02   0.301E+00 0.284E+00 0.389E+00   -.113E-03 -.801E-04 0.884E-03
   0.661E+02 -.274E+02 -.698E+02   -.668E+02 0.273E+02 0.702E+02   0.669E+00 0.134E+00 -.432E+00   -.142E-03 0.181E-03 -.697E-03
   -.568E+02 -.436E+02 -.698E+02   0.570E+02 0.442E+02 0.702E+02   -.219E+00 -.647E+00 -.432E+00   0.227E-03 0.320E-04 -.697E-03
   -.934E+01 0.710E+02 -.698E+02   0.979E+01 -.715E+02 0.702E+02   -.450E+00 0.513E+00 -.432E+00   -.859E-04 -.213E-03 -.697E-03
   -.534E+02 0.349E+02 0.808E+02   0.537E+02 -.354E+02 -.812E+02   -.258E+00 0.496E+00 0.403E+00   -.141E-03 -.408E-03 0.593E-03
   -.350E+01 -.637E+02 0.808E+02   0.381E+01 0.642E+02 -.812E+02   -.301E+00 -.471E+00 0.403E+00   0.423E-03 0.823E-04 0.593E-03
   0.569E+02 0.288E+02 0.808E+02   -.575E+02 -.288E+02 -.812E+02   0.559E+00 -.249E-01 0.403E+00   -.283E-03 0.326E-03 0.593E-03
   0.539E+02 -.452E+02 -.496E+02   -.540E+02 0.458E+02 0.501E+02   0.125E+00 -.526E+00 -.438E+00   -.154E-03 -.312E-03 -.642E-03
   -.661E+02 -.240E+02 -.497E+02   0.666E+02 0.239E+02 0.501E+02   -.518E+00 0.155E+00 -.438E+00   -.193E-03 0.289E-03 -.642E-03
   0.122E+02 0.693E+02 -.496E+02   -.126E+02 -.696E+02 0.501E+02   0.393E+00 0.371E+00 -.438E+00   0.347E-03 0.229E-04 -.642E-03
   0.629E+02 -.468E+02 -.745E+02   -.633E+02 0.471E+02 0.743E+02   0.452E+00 -.271E+00 0.213E+00   0.788E-04 -.197E-03 -.754E-03
   0.911E+01 0.779E+02 -.745E+02   -.912E+01 -.784E+02 0.743E+02   0.852E-02 0.526E+00 0.213E+00   0.131E-03 0.167E-03 -.754E-03
   -.720E+02 -.310E+02 -.745E+02   0.724E+02 0.313E+02 0.743E+02   -.460E+00 -.256E+00 0.213E+00   -.210E-03 0.300E-04 -.754E-03
   -.657E+02 0.301E+02 -.553E+02   0.660E+02 -.298E+02 0.559E+02   -.283E+00 -.299E+00 -.590E+00   0.308E-03 0.223E-03 -.889E-03
   0.589E+02 0.418E+02 -.553E+02   -.588E+02 -.422E+02 0.559E+02   -.117E+00 0.395E+00 -.590E+00   0.395E-04 -.378E-03 -.889E-03
   0.675E+01 -.720E+02 -.553E+02   -.717E+01 0.720E+02 0.559E+02   0.400E+00 -.955E-01 -.590E+00   -.347E-03 0.155E-03 -.889E-03
   0.652E+02 -.340E+02 0.695E+02   -.656E+02 0.343E+02 -.697E+02   0.338E+00 -.213E+00 0.122E+00   0.420E-03 -.319E-04 0.771E-03
   -.312E+01 0.735E+02 0.695E+02   0.311E+01 -.739E+02 -.697E+02   0.155E-01 0.400E+00 0.122E+00   -.182E-03 0.380E-03 0.771E-03
   -.621E+02 -.395E+02 0.695E+02   0.625E+02 0.397E+02 -.697E+02   -.354E+00 -.186E+00 0.122E+00   -.238E-03 -.348E-03 0.771E-03
   -.638E+02 0.358E+02 -.707E+02   0.640E+02 -.362E+02 0.713E+02   -.165E+00 0.371E+00 -.580E+00   0.456E-03 -.180E-03 -.813E-03
   0.629E+02 0.373E+02 -.707E+02   -.633E+02 -.373E+02 0.713E+02   0.404E+00 -.426E-01 -.580E+00   -.384E-03 -.305E-03 -.813E-03
   0.881E+00 -.731E+02 -.707E+02   -.642E+00 0.735E+02 0.713E+02   -.239E+00 -.329E+00 -.580E+00   -.720E-04 0.485E-03 -.813E-03
   0.530E+02 -.315E+02 -.187E+02   -.541E+02 0.322E+02 0.186E+02   0.117E+01 -.664E+00 0.651E-01   0.589E-03 -.375E-03 0.107E-03
   0.820E+00 0.616E+02 -.187E+02   -.809E+00 -.630E+02 0.186E+02   -.952E-02 0.134E+01 0.651E-01   0.309E-04 0.698E-03 0.107E-03
   -.538E+02 -.301E+02 -.187E+02   0.549E+02 0.308E+02 0.186E+02   -.116E+01 -.680E+00 0.651E-01   -.620E-03 -.323E-03 0.107E-03
   0.691E+02 -.296E+02 0.526E+02   -.695E+02 0.297E+02 -.525E+02   0.372E+00 -.138E+00 -.111E+00   -.820E-04 0.401E-04 0.798E-03
   -.602E+02 -.450E+02 0.526E+02   0.605E+02 0.453E+02 -.525E+02   -.306E+00 -.253E+00 -.111E+00   0.758E-04 0.510E-04 0.798E-03
   -.891E+01 0.747E+02 0.526E+02   0.898E+01 -.750E+02 -.525E+02   -.666E-01 0.391E+00 -.111E+00   0.635E-05 -.910E-04 0.798E-03
   -.148E+03 0.861E+02 0.934E+01   0.149E+03 -.865E+02 -.942E+01   -.142E+01 0.447E+00 0.875E-01   0.189E-03 -.424E-03 0.174E-03
   -.614E+00 -.171E+03 0.933E+01   0.298E+00 0.173E+03 -.942E+01   0.324E+00 -.146E+01 0.875E-01   0.272E-03 0.376E-03 0.174E-03
   0.148E+03 0.850E+02 0.933E+01   -.150E+03 -.860E+02 -.942E+01   0.110E+01 0.101E+01 0.875E-01   -.461E-03 0.481E-04 0.174E-03
   0.566E+02 -.414E+02 0.740E+02   -.567E+02 0.419E+02 -.749E+02   0.651E-01 -.462E+00 0.864E+00   -.238E-03 -.830E-04 0.666E-03
   -.642E+02 -.283E+02 0.740E+02   0.646E+02 0.281E+02 -.749E+02   -.433E+00 0.175E+00 0.864E+00   0.470E-04 0.247E-03 0.666E-03
   0.757E+01 0.697E+02 0.740E+02   -.793E+01 -.700E+02 -.749E+02   0.368E+00 0.288E+00 0.864E+00   0.191E-03 -.164E-03 0.666E-03
   0.647E+01 -.122E+01 0.113E+01   -.590E+01 0.160E+01 -.139E+01   -.564E+00 -.382E+00 0.253E+00   0.101E-04 -.184E-04 0.316E-05
   -.218E+01 0.621E+01 0.113E+01   0.156E+01 -.591E+01 -.139E+01   0.613E+00 -.297E+00 0.253E+00   0.109E-04 0.180E-04 0.316E-05
   -.429E+01 -.499E+01 0.113E+01   0.434E+01 0.431E+01 -.139E+01   -.487E-01 0.679E+00 0.253E+00   -.210E-04 0.475E-06 0.316E-05
   0.509E+00 0.335E+01 -.323E+00   0.156E+00 -.331E+01 0.184E+00   -.664E+00 -.436E-01 0.135E+00   -.112E-04 -.159E-05 0.980E-05
   -.316E+01 -.124E+01 -.324E+00   0.279E+01 0.179E+01 0.184E+00   0.370E+00 -.553E+00 0.135E+00   0.700E-05 -.894E-05 0.981E-05
   0.265E+01 -.212E+01 -.324E+00   -.294E+01 0.152E+01 0.184E+00   0.294E+00 0.597E+00 0.135E+00   0.424E-05 0.105E-04 0.981E-05
   0.263E-01 0.145E+01 0.586E+00   -.588E+00 -.158E+01 -.584E+00   0.562E+00 0.126E+00 -.528E-02   0.703E-05 -.851E-06 0.120E-04
   -.127E+01 -.704E+00 0.586E+00   0.166E+01 0.280E+00 -.584E+00   -.390E+00 0.424E+00 -.528E-02   -.278E-05 0.651E-05 0.120E-04
   0.125E+01 -.750E+00 0.586E+00   -.107E+01 0.130E+01 -.584E+00   -.172E+00 -.550E+00 -.528E-02   -.425E-05 -.566E-05 0.120E-04
   0.464E+01 0.467E+01 -.121E+01   -.413E+01 -.480E+01 0.125E+01   -.506E+00 0.125E+00 -.381E-01   0.338E-05 0.151E-04 -.121E-04
   -.637E+01 0.168E+01 -.121E+01   0.622E+01 -.118E+01 0.125E+01   0.144E+00 -.500E+00 -.381E-01   -.147E-04 -.461E-05 -.121E-04
   0.173E+01 -.635E+01 -.121E+01   -.209E+01 0.597E+01 0.125E+01   0.361E+00 0.375E+00 -.381E-01   0.114E-04 -.105E-04 -.121E-04
   -.486E+00 0.694E+00 0.176E+01   0.832E-01 -.478E+00 -.140E+01   0.406E+00 -.217E+00 -.354E+00   0.222E-04 0.873E-06 0.522E-05
   -.357E+00 -.768E+00 0.176E+01   0.372E+00 0.311E+00 -.140E+01   -.144E-01 0.460E+00 -.354E+00   -.119E-04 0.188E-04 0.521E-05
   0.844E+00 0.743E-01 0.176E+01   -.455E+00 0.167E+00 -.140E+01   -.391E+00 -.242E+00 -.354E+00   -.103E-04 -.197E-04 0.522E-05
   -.279E+01 0.441E+01 -.247E+01   0.241E+01 -.453E+01 0.263E+01   0.380E+00 0.125E+00 -.150E+00   -.225E-05 0.163E-04 -.188E-04
   -.242E+01 -.463E+01 -.247E+01   0.272E+01 0.436E+01 0.263E+01   -.298E+00 0.266E+00 -.150E+00   -.130E-04 -.101E-04 -.188E-04
   0.522E+01 0.215E+00 -.247E+01   -.513E+01 0.177E+00 0.263E+01   -.814E-01 -.392E+00 -.150E+00   0.152E-04 -.619E-05 -.188E-04
   -.145E-02 -.685E-03 -.872E+01   -.196E-03 -.264E-03 0.803E+01   0.115E-06 -.162E-06 0.701E+00   0.286E-07 0.723E-08 -.147E-03
   0.612E-03 -.107E-02 -.451E+00   0.293E-03 -.378E-03 0.874E+00   -.694E-07 0.979E-07 -.424E+00   0.331E-08 0.270E-07 0.221E-03
   -.185E-03 -.754E-03 -.127E+01   -.345E-03 0.587E-04 0.146E+01   -.308E-07 0.435E-07 -.188E+00   0.346E-07 0.598E-07 0.117E-03
   0.736E-03 -.144E-02 0.131E+03   0.408E-03 -.323E-03 -.131E+03   -.252E-07 0.355E-07 -.154E+00   -.674E-07 0.133E-07 -.481E-03
   -.377E-03 0.177E-02 -.840E+00   -.396E-03 0.513E-03 0.629E+00   0.343E-07 -.484E-07 0.210E+00   -.617E-08 -.220E-07 -.389E-03
   -.149E-02 -.251E-03 -.107E+03   0.543E-03 -.598E-04 0.107E+03   -.466E-07 0.657E-07 -.285E+00   0.118E-07 -.736E-08 0.173E-03
 -----------------------------------------------------------------------------------------------
   0.714E-02 -.126E-01 0.638E+00   0.140E-12 -.309E-14 0.227E-12   -.105E-06 0.147E-06 -.638E+00   -.189E-07 -.285E-07 0.828E-04
 
 
 POSITION                                       TOTAL-FORCE (eV/Angst)
 -----------------------------------------------------------------------------------
     -3.66226      8.65518      4.72054         0.001992     -0.002291      0.019424
      0.00259      2.31644      4.72054         0.000988      0.002871      0.019424
      3.65967      8.65967      4.72054        -0.002980     -0.000580      0.019424
      9.40166      1.13255      7.47454         0.001877      0.004892     -0.018438
      1.94705      1.10730      7.47453         0.003298     -0.004072     -0.018438
      5.65249      7.57581      7.47453        -0.005175     -0.000820     -0.018438
     -3.93784      8.58062     10.94812        -0.009344     -0.004304      0.008757
      0.20496      2.11506     10.94813         0.008400     -0.005940      0.008757
      3.73290      8.93562     10.94812         0.000944      0.010244      0.008757
      9.32878      1.05265      1.52215        -0.002619     -0.007417     -0.011643
      1.91430      1.21036      1.52215        -0.005114      0.005977     -0.011643
      5.75812      7.55264      1.52214         0.007733      0.001440     -0.011643
     -1.98426      7.66157      1.70931        -0.001940      0.001551     -0.006872
      0.02409      4.26644      1.70931        -0.000373     -0.002456     -0.006872
      1.96018      7.70329      1.70931         0.002313      0.000904     -0.006872
      7.65717      2.33554     10.67219         0.004808      0.006602     -0.018812
      3.86112      2.01658     10.67219         0.003313     -0.007465     -0.018812
      5.48292      5.46354     10.67219        -0.008121      0.000863     -0.018812
     -1.89952      7.83333      7.88539         0.003069      0.002330      0.014277
     -0.16704      4.25395      7.88539        -0.003553      0.001493      0.014277
      2.06656      7.54401      7.88539         0.000484     -0.003823      0.014277
      7.65704      2.22055      4.41425         0.007411      0.000184     -0.022702
      3.76160      2.07417      4.41425        -0.003546     -0.006510     -0.022702
      5.58255      5.52092      4.41425        -0.003864      0.006326     -0.022702
      2.08395      5.27308      4.70851         0.013898     -0.010153      0.006060
      0.05847      8.98386      4.70851         0.001844      0.017112      0.006060
     -2.14242      5.37435      4.70850        -0.015741     -0.006960      0.006060
      3.75914      4.38437      7.70701        -0.002180     -0.002036      0.011240
      7.58446      4.36795      7.70700        -0.000673      0.002906      0.011240
      5.65759      1.06333      7.70701         0.002853     -0.000870      0.011240
      1.69516      5.49492     11.00278        -0.015482      0.000703      0.006311
      0.06076      8.53624     11.00278         0.007133     -0.013759      0.006311
     -1.75591      5.60014     11.00278         0.008350      0.013057      0.006311
      3.67397      4.29422      1.56438        -0.001507     -0.005754      0.015960
      7.54898      4.48679      1.56438        -0.004229      0.004182      0.015960
      5.77825      1.03464      1.56438         0.005736      0.001572      0.015960
      7.67259      0.41653     12.14004         0.000903     -0.000304     -0.002951
      7.13713      6.43640     12.14004        -0.000188      0.000934     -0.002951
      2.19150      2.96273     12.14005        -0.000715     -0.000630     -0.002951
      4.04249      0.11881      6.13690         0.000589      0.002422     -0.004279
      9.20999      3.44150      6.13690        -0.002392     -0.000701     -0.004279
      3.74871      6.25534      6.13690         0.001803     -0.001721     -0.004279
      1.66173      9.60133      6.43992         0.000328      0.001317     -0.003557
     -3.47879      6.45408      6.43991        -0.001305     -0.000374     -0.003557
      1.81707      3.57589      6.43992         0.000976     -0.000943     -0.003557
     -1.62060      9.72410      3.00511         0.005658      0.000097      0.001055
     -1.94395      3.55011      3.00510        -0.002914      0.004852      0.001055
      3.56455      6.35708      3.00511        -0.002745     -0.004949      0.001055
      3.02276      0.09904      9.47054         0.002401     -0.001295      0.003518
      9.73699      2.56826      9.47055        -0.000078      0.002727      0.003518
      4.24146      7.14834      9.47054        -0.002322     -0.001431      0.003518
      1.81994      9.75423      3.17806        -0.000974      0.001306      0.001514
     -3.69032      6.51464      3.17805        -0.000644     -0.001497      0.001514
      1.87038      3.36242      3.17806         0.001619      0.000191      0.001514
      0.00000      0.00000      0.14373         0.000000     -0.000000      0.004691
      0.00000      0.00000      6.02563        -0.000000      0.000000     -0.000806
      5.66707      3.27188      9.18863         0.000000     -0.000000      0.000467
      0.00000      6.54377      9.14339        -0.000000      0.000000     -0.007230
      5.66707      3.27188      2.98565        -0.000000      0.000000     -0.001248
      0.00000      6.54377      0.47372         0.000000     -0.000000      0.007534
 -----------------------------------------------------------------------------------
    total drift:                                0.007135     -0.012604     -0.000304


--------------------------------------------------------------------------------------------------------



  FREE ENERGIE OF THE ION-ELECTRON SYSTEM (eV)
  ---------------------------------------------------
  free  energy   TOTEN  =      -257.76444463 eV

  energy  without entropy=     -257.76444463  energy(sigma->0) =     -257.76444463
 
 d Force = 0.7646341E-03[ 0.644E-03, 0.886E-03]  d Energy = 0.7738464E-03-0.921E-05
 d Force =-0.2372856E+01[-0.238E+01,-0.237E+01]  d Ewald  =-0.2372855E+01-0.700E-06


--------------------------------------------------------------------------------------------------------


    POTLOK:  cpu time    0.0694: real time    0.0695


--------------------------------------------------------------------------------------------------------


 Steepest descent step on ions:
 trial-energy change:   -0.000774  1 .order   -0.000765   -0.000886   -0.000644
  (g-gl).g = 0.886E-03      g.g   = 0.886E-03  gl.gl    = 0.000E+00
 g(Force)  = 0.886E-03   g(Stress)= 0.000E+00 ortho     = 0.000E+00
 gamma     =   0.00000
 trial     =   1.00000
 opt step  =   3.66108  (harmonic =   3.66108) maximal distance =0.00524067
 next E    =  -257.765292   (d E  =  -0.00162)


--------------------------------------------------------------------------------------------------------


    WAVPRE:  cpu time    0.0312: real time    0.0330
    FEWALD:  cpu time    0.0011: real time    0.0011
    ORTHCH:  cpu time    0.2364: real time    0.2365
     LOOP+:  cpu time   13.3168: real time   13.3378


--------------------------------------- Iteration      3(   1)  ---------------------------------------


    POTLOK:  cpu time    0.0674: real time    0.0697
    SETDIJ:  cpu time    0.0055: real time    0.0054
     EDDAV:  cpu time    1.4456: real time    1.4461
       DOS:  cpu time    0.0010: real time    0.0010
    CHARGE:  cpu time    0.1211: real time    0.1211
    MIXING:  cpu time    0.0030: real time    0.0030
    --------------------------------------------
      LOOP:  cpu time    1.6434: real time    1.6463

 eigenvalue-minimisations  :   480
 total energy-change (2. order) : 0.1200139E-02  (-0.5313869E-01)
 number of electron     335.9999979 magnetization 
 augmentation part      -21.1927707 magnetization 

 Broyden mixing:
  rms(total) = 0.12625E-01    rms(broyden)= 0.12624E-01
  rms(prec ) = 0.15321E-01
  weight for this iteration     100.00

 Free energy of the ion-electron system (eV)
  ---------------------------------------------------
  alpha Z        PSCENC =       571.58137139
  Ewald energy   TEWEN  =    -15167.89293552
  -Hartree energ DENC   =     -5317.96914464
  -exchange      EXHF   =         0.00000000
  -V(xc)+E(xc)   XCENC  =       919.11443331
  PAW double counting   =     11940.53946537   -11734.85730160
  entropy T*S    EENTRO =        -0.00000000
  eigenvalues    EBANDS =     -2591.07705867
  atomic energy  EATOM  =     21122.79792691
  Solvation  Ediel_sol  =         0.00000000
  ---------------------------------------------------
  free energy    TOTEN  =      -257.76324345 eV

  energy without entropy =     -257.76324345  energy(sigma->0) =     -257.76324345


--------------------------------------------------------------------------------------------------------




--------------------------------------- Iteration      3(   2)  ---------------------------------------


    POTLOK:  cpu time    0.0659: real time    0.0696
    SETDIJ:  cpu time    0.0061: real time    0.0062
     EDDAV:  cpu time    1.7425: real time    1.7427
       DOS:  cpu time    0.0002: real time    0.0002
    CHARGE:  cpu time    0.1208: real time    0.1209
    MIXING:  cpu time    0.0023: real time    0.0023
    --------------------------------------------
      LOOP:  cpu time    1.9378: real time    1.9419

 eigenvalue-minimisations  :   600
 total energy-change (2. order) :-0.2087447E-02  (-0.2386396E-02)
 number of electron     335.9999979 magnetization 
 augmentation part      -21.1952181 magnetization 

 Broyden mixing:
  rms(total) = 0.44638E-02    rms(broyden)= 0.44587E-02
  rms(prec ) = 0.65447E-02
  weight for this iteration     100.00

 eigenvalues of (default mixing * dielectric matrix)
  average eigenvalue GAMMA=   0.8757
  0.8757

 Free energy of the ion-electron system (eV)
  ---------------------------------------------------
  alpha Z        PSCENC =       571.58137139
  Ewald energy   TEWEN  =    -15167.89293552
  -Hartree energ DENC   =     -5318.24069867
  -exchange      EXHF   =         0.00000000
  -V(xc)+E(xc)   XCENC  =       919.11573209
  PAW double counting   =     11941.10153656   -11735.41587702
  entropy T*S    EENTRO =        -0.00000000
  eigenvalues    EBANDS =     -2590.81238664
  atomic energy  EATOM  =     21122.79792691
  Solvation  Ediel_sol  =         0.00000000
  ---------------------------------------------------
  free energy    TOTEN  =      -257.76533090 eV

  energy without entropy =     -257.76533090  energy(sigma->0) =     -257.76533090


--------------------------------------------------------------------------------------------------------




--------------------------------------- Iteration      3(   3)  ---------------------------------------


    POTLOK:  cpu time    0.0657: real time    0.0693
    SETDIJ:  cpu time    0.0055: real time    0.0055
     EDDAV:  cpu time    2.0375: real time    2.0378
       DOS:  cpu time    0.0002: real time    0.0002
    CHARGE:  cpu time    0.1218: real time    0.1218
    MIXING:  cpu time    0.0019: real time    0.0019
    --------------------------------------------
      LOOP:  cpu time    2.2325: real time    2.2365

 eigenvalue-minimisations  :   720
 total energy-change (2. order) : 0.5091429E-04  (-0.4305675E-04)
 number of electron     335.9999979 magnetization 
 augmentation part      -21.1967291 magnetization 

 Broyden mixing:
  rms(total) = 0.35559E-02    rms(broyden)= 0.35557E-02
  rms(prec ) = 0.48926E-02
  weight for this iteration     100.00

 eigenvalues of (default mixing * dielectric matrix)
  average eigenvalue GAMMA=   1.2815
  1.2815  1.2815

 Free energy of the ion-electron system (eV)
  ---------------------------------------------------
  alpha Z        PSCENC =       571.58137139
  Ewald energy   TEWEN  =    -15167.89293552
  -Hartree energ DENC   =     -5318.41472796
  -exchange      EXHF   =         0.00000000
  -V(xc)+E(xc)   XCENC  =       919.11765414
  PAW double counting   =     11941.54751287   -11735.85059133
  entropy T*S    EENTRO =        -0.00000000
  eigenvalues    EBANDS =     -2590.65149049
  atomic energy  EATOM  =     21122.79792691
  Solvation  Ediel_sol  =         0.00000000
  ---------------------------------------------------
  free energy    TOTEN  =      -257.76527998 eV

  energy without entropy =     -257.76527998  energy(sigma->0) =     -257.76527998


--------------------------------------------------------------------------------------------------------




--------------------------------------- Iteration      3(   4)  ---------------------------------------


    POTLOK:  cpu time    0.0663: real time    0.0697
    SETDIJ:  cpu time    0.0055: real time    0.0055
     EDDAV:  cpu time    1.8894: real time    1.8897
       DOS:  cpu time    0.0002: real time    0.0002
    CHARGE:  cpu time    0.1222: real time    0.1222
    MIXING:  cpu time    0.0018: real time    0.0018
    --------------------------------------------
      LOOP:  cpu time    2.0853: real time    2.0890

 eigenvalue-minimisations  :   660
 total energy-change (2. order) : 0.5312714E-04  (-0.1587558E-04)
 number of electron     335.9999979 magnetization 
 augmentation part      -21.1968177 magnetization 

 Broyden mixing:
  rms(total) = 0.16750E-02    rms(broyden)= 0.16750E-02
  rms(prec ) = 0.20037E-02
  weight for this iteration     100.00

 eigenvalues of (default mixing * dielectric matrix)
  average eigenvalue GAMMA=   1.5198
  2.4795  1.0399  1.0399

 Free energy of the ion-electron system (eV)
  ---------------------------------------------------
  alpha Z        PSCENC =       571.58137139
  Ewald energy   TEWEN  =    -15167.89293552
  -Hartree energ DENC   =     -5318.62506516
  -exchange      EXHF   =         0.00000000
  -V(xc)+E(xc)   XCENC  =       919.12118438
  PAW double counting   =     11942.23233580   -11736.51583498
  entropy T*S    EENTRO =        -0.00000000
  eigenvalues    EBANDS =     -2590.46420968
  atomic energy  EATOM  =     21122.79792691
  Solvation  Ediel_sol  =         0.00000000
  ---------------------------------------------------
  free energy    TOTEN  =      -257.76522685 eV

  energy without entropy =     -257.76522685  energy(sigma->0) =     -257.76522685


--------------------------------------------------------------------------------------------------------




--------------------------------------- Iteration      3(   5)  ---------------------------------------


    POTLOK:  cpu time    0.0655: real time    0.0694
    SETDIJ:  cpu time    0.0055: real time    0.0055
     EDDAV:  cpu time    1.7425: real time    1.7428
       DOS:  cpu time    0.0002: real time    0.0002
    CHARGE:  cpu time    0.1210: real time    0.1210
    MIXING:  cpu time    0.0018: real time    0.0018
    --------------------------------------------
      LOOP:  cpu time    1.9366: real time    1.9408

 eigenvalue-minimisations  :   600
 total energy-change (2. order) :-0.4089314E-05  (-0.4874077E-05)
 number of electron     335.9999979 magnetization 
 augmentation part      -21.1964450 magnetization 

 Broyden mixing:
  rms(total) = 0.11541E-02    rms(broyden)= 0.11541E-02
  rms(prec ) = 0.13331E-02
  weight for this iteration     100.00

 eigenvalues of (default mixing * dielectric matrix)
  average eigenvalue GAMMA=   1.8487
  3.6229  1.4496  1.4496  0.8729

 Free energy of the ion-electron system (eV)
  ---------------------------------------------------
  alpha Z        PSCENC =       571.58137139
  Ewald energy   TEWEN  =    -15167.89293552
  -Hartree energ DENC   =     -5318.67646753
  -exchange      EXHF   =         0.00000000
  -V(xc)+E(xc)   XCENC  =       919.12264627
  PAW double counting   =     11942.61823249   -11736.89294859
  entropy T*S    EENTRO =        -0.00000000
  eigenvalues    EBANDS =     -2590.42305637
  atomic energy  EATOM  =     21122.79792691
  Solvation  Ediel_sol  =         0.00000000
  ---------------------------------------------------
  free energy    TOTEN  =      -257.76523094 eV

  energy without entropy =     -257.76523094  energy(sigma->0) =     -257.76523094


--------------------------------------------------------------------------------------------------------




--------------------------------------- Iteration      3(   6)  ---------------------------------------


    POTLOK:  cpu time    0.0656: real time    0.0692
    SETDIJ:  cpu time    0.0054: real time    0.0054
     EDDAV:  cpu time    1.3364: real time    1.3367
       DOS:  cpu time    0.0002: real time    0.0002
    --------------------------------------------
      LOOP:  cpu time    1.4076: real time    1.4114

 eigenvalue-minimisations  :   420
 total energy-change (2. order) :-0.2824741E-05  (-0.3869973E-06)
 number of electron     335.9999979 magnetization 
 augmentation part      -21.1964450 magnetization 

 Free energy of the ion-electron system (eV)
  ---------------------------------------------------
  alpha Z        PSCENC =       571.58137139
  Ewald energy   TEWEN  =    -15167.89293552
  -Hartree energ DENC   =     -5318.68423268
  -exchange      EXHF   =         0.00000000
  -V(xc)+E(xc)   XCENC  =       919.12345251
  PAW double counting   =     11943.04132840   -11737.31064308
  entropy T*S    EENTRO =        -0.00000000
  eigenvalues    EBANDS =     -2590.42150170
  atomic energy  EATOM  =     21122.79792691
  Solvation  Ediel_sol  =         0.00000000
  ---------------------------------------------------
  free energy    TOTEN  =      -257.76523377 eV

  energy without entropy =     -257.76523377  energy(sigma->0) =     -257.76523377


--------------------------------------------------------------------------------------------------------




 average (electrostatic) potential at core
  the test charge radii are     0.9406  0.9748  1.1987
  (the norm of the test charge is              1.0000)
       1 -93.8924       2 -93.8925       3 -93.8924       4 -93.8883       5 -93.8883
       6 -93.8883       7 -93.4899       8 -93.4898       9 -93.4897      10 -93.5326
      11 -93.5327      12 -93.5326      13 -93.8283      14 -93.8283      15 -93.8282
      16 -93.5553      17 -93.5553      18 -93.5553      19 -93.9636      20 -93.9635
      21 -93.9636      22 -93.8751      23 -93.8750      24 -93.8749      25 -93.0192
      26 -93.0193      27 -93.0192      28 -93.5722      29 -93.5722      30 -93.5722
      31 -94.0058      32 -94.0059      33 -94.0059      34 -93.8363      35 -93.8363
      36 -93.8363      37 -28.5558      38 -28.5560      39 -28.5559      40 -28.4309
      41 -28.4309      42 -28.4309      43 -28.5496      44 -28.5495      45 -28.5495
      46 -28.5261      47 -28.5262      48 -28.5260      49 -28.5820      50 -28.5819
      51 -28.5819      52 -28.3825      53 -28.3824      54 -28.3825      55 -40.5148
      56 -40.9806      57 -40.6745      58 -41.0747      59 -40.8939      60 -40.8850
 
 
 
 E-fermi :   0.4036     XC(G=0):  -8.0435     alpha+bet : -8.1532


 k-point     1 :       0.0000    0.0000    0.0000
  band No.  band energies     occupation 
      1     -41.5265      2.00000
      2     -41.4328      2.00000
      3     -41.3507      2.00000
      4     -41.3470      2.00000
      5     -41.1259      2.00000
      6     -40.9741      2.00000
      7     -21.6687      2.00000
      8     -21.6261      2.00000
      9     -21.6261      2.00000
     10     -21.5459      2.00000
     11     -21.5319      2.00000
     12     -21.5319      2.00000
     13     -21.4658      2.00000
     14     -21.4658      2.00000
     15     -21.4637      2.00000
     16     -21.4637      2.00000
     17     -21.4589      2.00000
     18     -21.4400      2.00000
     19     -21.2312      2.00000
     20     -21.2297      2.00000
     21     -21.2297      2.00000
     22     -21.0928      2.00000
     23     -21.0928      2.00000
     24     -21.0836      2.00000
     25     -13.8345      2.00000
     26     -13.6950      2.00000
     27     -13.6296      2.00000
     28     -13.5290      2.00000
     29     -13.5290      2.00000
     30     -13.4768      2.00000
     31     -13.4692      2.00000
     32     -13.4692      2.00000
     33     -13.4532      2.00000
     34     -13.4532      2.00000
     35     -13.4231      2.00000
     36     -13.4230      2.00000
     37     -13.3748      2.00000
     38     -13.3748      2.00000
     39     -13.3616      2.00000
     40     -13.3508      2.00000
     41     -13.3374      2.00000
     42     -13.3374      2.00000
     43     -13.2712      2.00000
     44     -13.2676      2.00000
     45     -13.2675      2.00000
     46     -13.2370      2.00000
     47     -13.2182      2.00000
     48     -13.1357      2.00000
     49     -13.1357      2.00000
     50     -13.0639      2.00000
     51     -13.0639      2.00000
     52     -13.0313      2.00000
     53     -13.0313      2.00000
     54     -12.9998      2.00000
     55     -12.9419      2.00000
     56     -12.9418      2.00000
     57     -12.9290      2.00000
     58     -12.5975      2.00000
     59     -12.5889      2.00000
     60     -12.5889      2.00000
     61      -3.2571      2.00000
     62      -3.1447      2.00000
     63      -3.0374      2.00000
     64      -3.0374      2.00000
     65      -2.9356      2.00000
     66      -2.8974      2.00000
     67      -2.8974      2.00000
     68      -2.8869      2.00000
     69      -2.8181      2.00000
     70      -2.7980      2.00000
     71      -2.7979      2.00000
     72      -2.7610      2.00000
     73      -2.7610      2.00000
     74      -2.6938      2.00000
     75      -2.6938      2.00000
     76      -2.6885      2.00000
     77      -2.6692      2.00000
     78      -2.6692      2.00000
     79      -2.6320      2.00000
     80      -2.5727      2.00000
     81      -2.5727      2.00000
     82      -2.5312      2.00000
     83      -2.5312      2.00000
     84      -2.4825      2.00000
     85      -2.4825      2.00000
     86      -2.4308      2.00000
     87      -2.4092      2.00000
     88      -2.4092      2.00000
     89      -2.3558      2.00000
     90      -2.3332      2.00000
     91      -2.3284      2.00000
     92      -2.3284      2.00000
     93      -2.2893      2.00000
     94      -2.2468      2.00000
     95      -2.2043      2.00000
     96      -2.2043      2.00000
     97      -2.1788      2.00000
     98      -2.1224      2.00000
     99      -2.1224      2.00000
    100      -2.0734      2.00000
    101      -2.0143      2.00000
    102      -2.0143      2.00000
    103      -1.9307      2.00000
    104      -1.9116      2.00000
    105      -1.8977      2.00000
    106      -1.8977      2.00000
    107      -1.8925      2.00000
    108      -1.8584      2.00000
    109      -1.8584      2.00000
    110      -1.8177      2.00000
    111      -1.7558      2.00000
    112      -1.7558      2.00000
    113      -1.6989      2.00000
    114      -1.6989      2.00000
    115      -1.6806      2.00000
    116      -1.6351      2.00000
    117      -1.6351      2.00000
    118      -1.6252      2.00000
    119      -1.5536      2.00000
    120      -1.5186      2.00000
    121      -1.5185      2.00000
    122      -1.4760      2.00000
    123      -1.4759      2.00000
    124      -1.4579      2.00000
    125      -1.3749      2.00000
    126      -1.3538      2.00000
    127      -1.3538      2.00000
    128      -1.3415      2.00000
    129      -1.2796      2.00000
    130      -1.2675      2.00000
    131      -1.2675      2.00000
    132      -1.2392      2.00000
    133      -1.2392      2.00000
    134      -1.1972      2.00000
    135      -1.1972      2.00000
    136      -1.1578      2.00000
    137      -1.1347      2.00000
    138      -1.1346      2.00000
    139      -1.0933      2.00000
    140      -1.0541      2.00000
    141      -1.0540      2.00000
    142      -1.0309      2.00000
    143      -0.9871      2.00000
    144      -0.9871      2.00000
    145      -0.9670      2.00000
    146      -0.9316      2.00000
    147      -0.9316      2.00000
    148      -0.9047      2.00000
    149      -0.8844      2.00000
    150      -0.8844      2.00000
    151      -0.8503      2.00000
    152      -0.8150      2.00000
    153      -0.7929      2.00000
    154      -0.7929      2.00000
    155      -0.7368      2.00000
    156      -0.7368      2.00000
    157      -0.6835      2.00000
    158      -0.6793      2.00000
    159      -0.6793      2.00000
    160      -0.6500      2.00000
    161      -0.6181      2.00000
    162      -0.6181      2.00000
    163      -0.5798      2.00000
    164      -0.5505      2.00000
    165      -0.5480      2.00000
    166      -0.5480      2.00000
    167      -0.1897      2.00000
    168      -0.1897      2.00000
    169       4.0086      0.00000
    170       4.3181      0.00000
    171       4.3181      0.00000
    172       4.3805      0.00000
    173       4.3829      0.00000
    174       4.3829      0.00000
    175       4.4490      0.00000
    176       4.4490      0.00000
    177       4.5297      0.00000
    178       4.5297      0.00000
    179       4.5324      0.00000
    180       4.7426      0.00000
    181       4.7426      0.00000
    182       4.7815      0.00000
    183       4.8827      0.00000
    184       4.8827      0.00000
    185       4.9066      0.00000
    186       4.9784      0.00000
    187       5.4551      0.00000
    188       6.0002      0.00000
    189       6.0002      0.00000
    190       6.2397      0.00000
    191       6.2397      0.00000
    192       6.3693      0.00000
    193       6.3693      0.00000
    194       6.4232      0.00000
    195       6.4232      0.00000
    196       6.5150      0.00000
    197       6.5150      0.00000
    198       6.5952      0.00000
    199       6.6884      0.00000
    200       6.6884      0.00000
    201       6.6992      0.00000
    202       7.0558      0.00000
    203       7.1537      0.00000
    204       7.2508      0.00000
    205       7.2757      0.00000
    206       7.2757      0.00000
    207       7.3669      0.00000
    208       7.3670      0.00000
    209       7.4361      0.00000
    210       7.5105      0.00000
    211       7.5105      0.00000
    212       7.6124      0.00000
    213       7.6937      0.00000
    214       7.7299      0.00000
    215       7.7749      0.00000
    216       7.7749      0.00000
    217       7.9346      0.00000
    218       7.9346      0.00000
    219       8.0346      0.00000
    220       8.0346      0.00000
    221       8.0483      0.00000
    222       8.2101      0.00000
    223       8.2102      0.00000
    224       8.3342      0.00000
    225       8.3342      0.00000
    226       8.3879      0.00000
    227       8.4914      0.00000
    228       8.4914      0.00000
    229       8.6524      0.00000
    230       8.6702      0.00000
    231       8.6702      0.00000
    232       8.7714      0.00000
    233       8.8674      0.00000
    234       8.8674      0.00000
    235       9.0412      0.00000
    236       9.0413      0.00000
    237       9.0599      0.00000
    238       9.0948      0.00000
    239       9.2016      0.00000
    240       9.2018      0.00000


--------------------------------------------------------------------------------------------------------


 soft charge-density along one line, spin component           1
         0         1         2         3         4         5         6         7         8         9
 total charge-density along one line
 
 pseudopotential strength for first ion, spin component:           1
 47.854  -0.017   0.003   0.006  -0.007   0.000   0.000  -0.000
 -0.017   0.019   0.000   0.000  -0.000   0.000   0.000  -0.000
  0.003   0.000   9.156   0.001  -0.001  -0.001  -0.000   0.000
  0.006   0.000   0.001   9.156  -0.002  -0.000  -0.001   0.000
 -0.007  -0.000  -0.001  -0.002   9.157   0.000   0.000  -0.001
  0.000   0.000  -0.001  -0.000   0.000   0.035   0.000  -0.000
  0.000   0.000  -0.000  -0.001   0.000   0.000   0.035  -0.000
 -0.000  -0.000   0.000   0.000  -0.001  -0.000  -0.000   0.035
 total augmentation occupancy for first ion, spin component:           1
  1.919   0.384  -0.013  -0.028   0.030  -0.015  -0.030   0.036
  0.384   0.316   0.072   0.155  -0.171  -0.029  -0.070   0.059
 -0.013   0.072   1.763  -0.014   0.009  -0.359  -0.034   0.024
 -0.028   0.155  -0.014   1.770   0.024  -0.034  -0.347   0.048
  0.030  -0.171   0.009   0.024   1.755   0.024   0.048  -0.380
 -0.015  -0.029  -0.359  -0.034   0.024   0.105   0.022  -0.016
 -0.030  -0.070  -0.034  -0.347   0.048   0.022   0.101  -0.031
  0.036   0.059   0.024   0.048  -0.380  -0.016  -0.031   0.118


------------------------ aborting loop because EDIFF is reached ----------------------------------------


 


 total charge     
 
# of ion       s       p       d       tot
------------------------------------------
    1        1.593   3.573   0.000   5.166
    2        1.593   3.573   0.000   5.166
    3        1.593   3.573   0.000   5.166
    4        1.592   3.579   0.000   5.171
    5        1.592   3.579   0.000   5.171
    6        1.592   3.579   0.000   5.171
    7        1.591   3.587   0.000   5.178
    8        1.591   3.587   0.000   5.178
    9        1.591   3.587   0.000   5.178
   10        1.593   3.575   0.000   5.168
   11        1.593   3.575   0.000   5.168
   12        1.593   3.575   0.000   5.168
   13        1.593   3.585   0.000   5.178
   14        1.593   3.585   0.000   5.178
   15        1.593   3.585   0.000   5.178
   16        1.590   3.588   0.000   5.178
   17        1.590   3.588   0.000   5.178
   18        1.590   3.588   0.000   5.178
   19        1.592   3.577   0.000   5.169
   20        1.592   3.577   0.000   5.169
   21        1.592   3.577   0.000   5.169
   22        1.593   3.579   0.000   5.172
   23        1.593   3.579   0.000   5.172
   24        1.593   3.579   0.000   5.172
   25        1.588   3.587   0.000   5.175
   26        1.588   3.587   0.000   5.175
   27        1.588   3.587   0.000   5.175
   28        1.590   3.588   0.000   5.179
   29        1.590   3.588   0.000   5.179
   30        1.590   3.588   0.000   5.179
   31        1.595   3.564   0.000   5.160
   32        1.595   3.564   0.000   5.160
   33        1.595   3.564   0.000   5.160
   34        1.593   3.577   0.000   5.170
   35        1.593   3.577   0.000   5.170
   36        1.593   3.577   0.000   5.170
   37        0.056   0.102   0.000   0.158
   38        0.056   0.102   0.000   0.158
   39        0.056   0.102   0.000   0.158
   40        0.059   0.110   0.000   0.169
   41        0.059   0.110   0.000   0.169
   42        0.059   0.110   0.000   0.169
   43        0.056   0.102   0.000   0.158
   44        0.056   0.102   0.000   0.158
   45        0.056   0.102   0.000   0.158
   46        0.056   0.103   0.000   0.160
   47        0.056   0.103   0.000   0.160
   48        0.056   0.103   0.000   0.160
   49        0.060   0.106   0.000   0.166
   50        0.060   0.106   0.000   0.166
   51        0.060   0.106   0.000   0.166
   52        0.058   0.109   0.000   0.167
   53        0.058   0.109   0.000   0.167
   54        0.058   0.109   0.000   0.167
   55        2.122   6.130   0.691   8.943
   56        2.121   6.125   0.678   8.923
   57        2.120   6.124   0.677   8.921
   58        2.120   6.119   0.685   8.924
   59        2.122   6.128   0.686   8.936
   60        2.123   6.127   0.703   8.953
--------------------------------------------------
tot         71.078 167.531   4.120 242.729
 
    CHARGE:  cpu time    0.1207: real time    0.1207
    FORLOC:  cpu time    0.0219: real time    0.0219
    FORNL :  cpu time    0.4807: real time    0.4809
    STRESS:  cpu time    1.4876: real time    1.4877
    FORCOR:  cpu time    0.0742: real time    0.0742
    FORHAR:  cpu time    0.0330: real time    0.0330
    MIXING:  cpu time    0.0037: real time    0.0037
    OFIELD:  cpu time    0.0000: real time    0.0000

  FORCE on cell =-STRESS in cart. coord.  units (eV):
  Direction    XX          YY          ZZ          XY          YZ          ZX
  --------------------------------------------------------------------------------------
  Alpha Z   571.58137   571.58137   571.58137
  Ewald   -4929.50825 -4929.51094 -5308.94990    -0.00221    -0.00164    -0.00059
  Hartree  1850.52961  1850.53055  1617.62960     0.00064    -0.00006     0.00034
  E(xc)   -1246.29527 -1246.29523 -1246.95377     0.00002    -0.00002     0.00002
  Local   -3354.41263 -3354.41576 -2738.67505    -0.00099     0.00315    -0.00153
  n-local  2684.60128  2684.60046  2686.62427    -0.00033     0.00044    -0.00028
  augment  -619.16446  -619.16506  -619.63759    -0.00052     0.00012    -0.00006
  Kinetic  5045.28681  5045.28728  5038.33433     0.00023    -0.00017     0.00030
  Fock        0.00000     0.00000     0.00000     0.00000     0.00000     0.00000
  -------------------------------------------------------------------------------------
  Total       2.61556     2.61557    -0.04676     0.00000    -0.00000     0.00000
  in kB       3.03755     3.03755    -0.05430     0.00000    -0.00000     0.00000
  external pressure =        2.01 kB  Pullay stress =        0.00 kB


 VOLUME and BASIS-vectors are now :
 -----------------------------------------------------------------------------
  energy-cutoff  :      520.00
  volume of cell :     1379.60
      direct lattice vectors                 reciprocal lattice vectors
    11.334128968  0.000003780  0.000002558     0.088229083  0.050939039 -0.000000003
    -5.667061570  9.815647364 -0.000003655    -0.000000034  0.101878131  0.000000024
     0.000002030 -0.000002865 12.400680362    -0.000000018  0.000000020  0.080640737

  length of vectors
    11.334128968 11.334130757 12.400680362     0.101878147  0.101878131  0.080640737


 FORCES acting on ions
    electron-ion (+dipol)            ewald-force                    non-local-force                 convergence-correction
 -----------------------------------------------------------------------------------------------
   -.815E+02 0.464E+02 0.492E+02   0.819E+02 -.465E+02 -.496E+02   -.381E+00 0.108E+00 0.368E+00   0.109E-02 -.555E-03 0.788E-03
   0.590E+00 -.938E+02 0.492E+02   -.683E+00 0.942E+02 -.496E+02   0.966E-01 -.384E+00 0.368E+00   -.643E-04 0.122E-02 0.788E-03
   0.810E+02 0.474E+02 0.492E+02   -.812E+02 -.477E+02 -.496E+02   0.284E+00 0.276E+00 0.368E+00   -.103E-02 -.666E-03 0.788E-03
   0.664E+02 -.276E+02 -.701E+02   -.670E+02 0.274E+02 0.706E+02   0.659E+00 0.138E+00 -.420E+00   -.684E-03 0.567E-03 -.769E-03
   -.571E+02 -.437E+02 -.701E+02   0.573E+02 0.443E+02 0.706E+02   -.210E+00 -.640E+00 -.420E+00   0.833E-03 0.309E-03 -.769E-03
   -.932E+01 0.713E+02 -.701E+02   0.977E+01 -.718E+02 0.706E+02   -.449E+00 0.502E+00 -.420E+00   -.149E-03 -.876E-03 -.769E-03
   -.536E+02 0.349E+02 0.811E+02   0.538E+02 -.354E+02 -.815E+02   -.251E+00 0.497E+00 0.392E+00   -.452E-05 -.817E-03 0.682E-03
   -.349E+01 -.639E+02 0.811E+02   0.379E+01 0.643E+02 -.815E+02   -.305E+00 -.466E+00 0.392E+00   0.709E-03 0.404E-03 0.682E-03
   0.570E+02 0.289E+02 0.811E+02   -.576E+02 -.289E+02 -.815E+02   0.556E+00 -.311E-01 0.392E+00   -.705E-03 0.412E-03 0.682E-03
   0.542E+02 -.455E+02 -.499E+02   -.543E+02 0.460E+02 0.503E+02   0.114E+00 -.517E+00 -.421E+00   -.534E-03 -.297E-03 -.780E-03
   -.664E+02 -.242E+02 -.499E+02   0.670E+02 0.240E+02 0.503E+02   -.505E+00 0.160E+00 -.421E+00   0.100E-04 0.610E-03 -.780E-03
   0.123E+02 0.696E+02 -.499E+02   -.127E+02 -.700E+02 0.503E+02   0.391E+00 0.357E+00 -.421E+00   0.524E-03 -.313E-03 -.780E-03
   0.633E+02 -.472E+02 -.749E+02   -.638E+02 0.474E+02 0.746E+02   0.429E+00 -.256E+00 0.244E+00   -.171E-03 -.909E-04 -.417E-03
   0.917E+01 0.784E+02 -.749E+02   -.918E+01 -.790E+02 0.746E+02   0.682E-02 0.500E+00 0.244E+00   0.165E-03 -.103E-03 -.417E-03
   -.725E+02 -.313E+02 -.749E+02   0.730E+02 0.315E+02 0.746E+02   -.436E+00 -.244E+00 0.244E+00   0.671E-05 0.193E-03 -.417E-03
   -.660E+02 0.303E+02 -.557E+02   0.663E+02 -.300E+02 0.562E+02   -.274E+00 -.305E+00 -.569E+00   0.795E-03 0.227E-03 -.101E-02
   0.592E+02 0.420E+02 -.557E+02   -.591E+02 -.424E+02 0.562E+02   -.127E+00 0.390E+00 -.569E+00   -.201E-03 -.802E-03 -.101E-02
   0.677E+01 -.723E+02 -.557E+02   -.718E+01 0.724E+02 0.562E+02   0.401E+00 -.852E-01 -.569E+00   -.594E-03 0.575E-03 -.101E-02
   0.659E+02 -.345E+02 0.698E+02   -.662E+02 0.347E+02 -.699E+02   0.315E+00 -.199E+00 0.981E-01   0.431E-03 0.839E-04 0.854E-03
   -.309E+01 0.743E+02 0.698E+02   0.307E+01 -.747E+02 -.699E+02   0.147E-01 0.372E+00 0.981E-01   -.288E-03 0.332E-03 0.854E-03
   -.628E+02 -.398E+02 0.698E+02   0.631E+02 0.400E+02 -.699E+02   -.330E+00 -.174E+00 0.981E-01   -.143E-03 -.416E-03 0.854E-03
   -.640E+02 0.359E+02 -.710E+02   0.642E+02 -.363E+02 0.715E+02   -.158E+00 0.367E+00 -.566E+00   0.131E-02 -.550E-03 -.115E-02
   0.631E+02 0.375E+02 -.710E+02   -.635E+02 -.375E+02 0.715E+02   0.397E+00 -.467E-01 -.566E+00   -.113E-02 -.863E-03 -.115E-02
   0.925E+00 -.734E+02 -.710E+02   -.687E+00 0.737E+02 0.715E+02   -.239E+00 -.320E+00 -.566E+00   -.181E-03 0.141E-02 -.115E-02
   0.532E+02 -.317E+02 -.187E+02   -.544E+02 0.323E+02 0.186E+02   0.115E+01 -.656E+00 0.619E-01   0.577E-03 -.349E-03 0.109E-03
   0.819E+00 0.619E+02 -.187E+02   -.808E+00 -.632E+02 0.186E+02   -.894E-02 0.133E+01 0.619E-01   0.145E-04 0.675E-03 0.109E-03
   -.540E+02 -.302E+02 -.187E+02   0.552E+02 0.309E+02 0.186E+02   -.115E+01 -.672E+00 0.619E-01   -.591E-03 -.326E-03 0.109E-03
   0.693E+02 -.297E+02 0.529E+02   -.696E+02 0.298E+02 -.528E+02   0.364E+00 -.133E+00 -.130E+00   -.476E-03 0.304E-03 0.115E-02
   -.603E+02 -.452E+02 0.529E+02   0.606E+02 0.454E+02 -.528E+02   -.297E+00 -.248E+00 -.130E+00   0.502E-03 0.260E-03 0.115E-02
   -.895E+01 0.748E+02 0.529E+02   0.902E+01 -.752E+02 -.528E+02   -.663E-01 0.382E+00 -.130E+00   -.253E-04 -.564E-03 0.115E-02
   -.148E+03 0.861E+02 0.935E+01   0.149E+03 -.865E+02 -.943E+01   -.141E+01 0.442E+00 0.865E-01   0.135E-02 -.131E-02 0.330E-03
   -.654E+00 -.171E+03 0.935E+01   0.338E+00 0.172E+03 -.943E+01   0.324E+00 -.144E+01 0.865E-01   0.463E-03 0.182E-02 0.330E-03
   0.148E+03 0.849E+02 0.935E+01   -.150E+03 -.859E+02 -.943E+01   0.109E+01 0.100E+01 0.865E-01   -.181E-02 -.509E-03 0.330E-03
   0.569E+02 -.416E+02 0.745E+02   -.570E+02 0.420E+02 -.754E+02   0.561E-01 -.453E+00 0.849E+00   -.794E-03 0.157E-03 0.558E-03
   -.645E+02 -.285E+02 0.745E+02   0.649E+02 0.283E+02 -.754E+02   -.420E+00 0.178E+00 0.849E+00   0.533E-03 0.609E-03 0.558E-03
   0.758E+01 0.701E+02 0.745E+02   -.794E+01 -.703E+02 -.754E+02   0.364E+00 0.275E+00 0.849E+00   0.261E-03 -.766E-03 0.558E-03
   0.654E+01 -.129E+01 0.116E+01   -.597E+01 0.166E+01 -.142E+01   -.570E+00 -.374E+00 0.250E+00   0.541E-05 -.483E-05 0.242E-04
   -.216E+01 0.631E+01 0.116E+01   0.155E+01 -.600E+01 -.142E+01   0.609E+00 -.307E+00 0.250E+00   0.147E-05 0.711E-05 0.242E-04
   -.438E+01 -.502E+01 0.116E+01   0.442E+01 0.434E+01 -.142E+01   -.387E-01 0.681E+00 0.250E+00   -.688E-05 -.228E-05 0.242E-04
   0.484E+00 0.334E+01 -.353E+00   0.179E+00 -.329E+01 0.213E+00   -.664E+00 -.408E-01 0.140E+00   -.622E-05 -.350E-04 -.317E-05
   -.313E+01 -.125E+01 -.353E+00   0.276E+01 0.180E+01 0.213E+00   0.367E+00 -.554E+00 0.140E+00   0.334E-04 0.121E-04 -.314E-05
   0.265E+01 -.209E+01 -.353E+00   -.294E+01 0.149E+01 0.213E+00   0.296E+00 0.595E+00 0.140E+00   -.272E-04 0.229E-04 -.315E-05
   0.377E-01 0.146E+01 0.549E+00   -.599E+00 -.158E+01 -.549E+00   0.563E+00 0.124E+00 0.132E-02   -.448E-05 -.318E-04 -.949E-06
   -.129E+01 -.699E+00 0.549E+00   0.167E+01 0.273E+00 -.549E+00   -.389E+00 0.426E+00 0.132E-02   0.298E-04 0.120E-04 -.931E-06
   0.125E+01 -.764E+00 0.549E+00   -.107E+01 0.131E+01 -.549E+00   -.174E+00 -.550E+00 0.132E-02   -.253E-04 0.198E-04 -.950E-06
   0.469E+01 0.475E+01 -.119E+01   -.418E+01 -.487E+01 0.123E+01   -.509E+00 0.119E+00 -.408E-01   -.494E-05 -.157E-04 -.171E-04
   -.646E+01 0.169E+01 -.119E+01   0.631E+01 -.118E+01 0.123E+01   0.151E+00 -.500E+00 -.408E-01   0.161E-04 0.358E-05 -.171E-04
   0.177E+01 -.644E+01 -.119E+01   -.213E+01 0.606E+01 0.123E+01   0.357E+00 0.381E+00 -.408E-01   -.112E-04 0.121E-04 -.171E-04
   -.420E+00 0.723E+00 0.176E+01   0.231E-01 -.504E+00 -.140E+01   0.397E+00 -.223E+00 -.356E+00   0.332E-04 0.720E-05 0.793E-05
   -.416E+00 -.725E+00 0.176E+01   0.425E+00 0.272E+00 -.140E+01   -.515E-02 0.456E+00 -.356E+00   -.228E-04 0.251E-04 0.791E-05
   0.836E+00 0.248E-02 0.176E+01   -.448E+00 0.232E+00 -.140E+01   -.392E+00 -.232E+00 -.356E+00   -.104E-04 -.323E-04 0.792E-05
   -.285E+01 0.449E+01 -.248E+01   0.247E+01 -.461E+01 0.263E+01   0.384E+00 0.120E+00 -.151E+00   0.382E-05 -.154E-04 -.314E-04
   -.247E+01 -.471E+01 -.248E+01   0.276E+01 0.444E+01 0.263E+01   -.296E+00 0.273E+00 -.151E+00   0.114E-04 0.110E-04 -.314E-04
   0.531E+01 0.221E+00 -.248E+01   -.522E+01 0.169E+00 0.263E+01   -.885E-01 -.392E+00 -.151E+00   -.152E-04 0.436E-05 -.314E-04
   -.145E-02 -.685E-03 -.869E+01   -.196E-03 -.264E-03 0.797E+01   0.116E-06 -.163E-06 0.706E+00   0.110E-06 0.400E-07 -.132E-03
   0.612E-03 -.107E-02 -.421E+00   0.293E-03 -.380E-03 0.862E+00   -.710E-07 0.100E-06 -.434E+00   -.768E-08 0.101E-06 0.417E-03
   -.185E-03 -.753E-03 -.130E+01   -.346E-03 0.568E-04 0.149E+01   -.311E-07 0.439E-07 -.190E+00   0.109E-06 0.176E-06 0.450E-03
   0.735E-03 -.144E-02 0.130E+03   0.411E-03 -.324E-03 -.130E+03   -.241E-07 0.340E-07 -.147E+00   -.215E-06 0.740E-07 -.180E-02
   -.377E-03 0.177E-02 -.956E+00   -.396E-03 0.515E-03 0.741E+00   0.358E-07 -.506E-07 0.219E+00   -.845E-09 -.989E-07 -.110E-02
   -.149E-02 -.250E-03 -.106E+03   0.544E-03 -.595E-04 0.107E+03   -.443E-07 0.625E-07 -.270E+00   0.444E-07 -.152E-07 0.128E-02
 -----------------------------------------------------------------------------------------------
   0.714E-02 -.126E-01 0.604E+00   0.768E-14 0.107E-12 -.284E-13   -.992E-07 0.140E-06 -.606E+00   -.101E-06 0.597E-07 0.103E-03
 
 
 POSITION                                       TOTAL-FORCE (eV/Angst)
 -----------------------------------------------------------------------------------
     -3.66250      8.65524      4.72370         0.014452     -0.010700      0.004023
      0.00267      2.31620      4.72370         0.002040      0.017866      0.004023
      3.65984      8.65986      4.72370        -0.016492     -0.007166      0.004023
      9.40224      1.13298      7.47171        -0.005808      0.009813     -0.006996
      1.94713      1.10658      7.47171         0.011402      0.000123     -0.006996
      5.65183      7.57610      7.47171        -0.005594     -0.009936     -0.006996
     -3.93927      8.57998     10.94960        -0.002485     -0.002903     -0.000709
      0.20623      2.11414     10.94961         0.003757     -0.000700     -0.000709
      3.73306      8.93718     10.94960        -0.001272      0.003604     -0.000709
      9.32879      1.05137      1.52008        -0.011466      0.000482      0.001578
      1.91318      1.21099      1.52009         0.006151      0.009689      0.001578
      5.75923      7.55329      1.52008         0.005316     -0.010171      0.001578
     -1.98367      7.66120      1.70761        -0.020111      0.013645      0.012219
      0.02411      4.26714      1.70761        -0.001762     -0.024239      0.012219
      1.95957      7.70296      1.70761         0.021873      0.010594      0.012219
      7.65760      2.33667     10.66916         0.010423     -0.001166     -0.003786
      3.86188      2.01564     10.66917        -0.006222     -0.008444     -0.003786
      5.48173      5.46334     10.66917        -0.004202      0.009610     -0.003786
     -1.89831      7.83319      7.88792        -0.015223      0.012264     -0.002162
     -0.16752      4.25507      7.88792        -0.003010     -0.019315     -0.002162
      2.06583      7.54304      7.88792         0.018232      0.007051     -0.002162
      7.65771      2.22071      4.41087         0.014324     -0.003128     -0.011451
      3.76140      2.07352      4.41087        -0.009871     -0.010841     -0.011451
      5.58208      5.52142      4.41087        -0.004453      0.013969     -0.011451
      2.08607      5.27162      4.70938         0.006094     -0.006309      0.003880
      0.05868      8.98642      4.70938         0.002416      0.008432      0.003880
     -2.14474      5.37324      4.70937        -0.008511     -0.002124      0.003880
      3.75919      4.38393      7.70897        -0.010222      0.002711     -0.000977
      7.58406      4.36813      7.70896         0.007458      0.007497     -0.000977
      5.65794      1.06358      7.70897         0.002763     -0.010208     -0.000977
      1.69300      5.49513     11.00363        -0.008539     -0.003561      0.005383
      0.06165      8.53426     11.00363         0.007353     -0.005615      0.005383
     -1.75464      5.60190     11.00363         0.001186      0.009175      0.005383
      3.67409      4.29324      1.56696        -0.010148      0.000186      0.002568
      7.54807      4.48717      1.56696         0.005235      0.008695      0.002568
      5.77903      1.03523      1.56696         0.004913     -0.008881      0.002568
      7.67279      0.41650     12.13993        -0.000919     -0.000588     -0.008283
      7.13705      6.43659     12.13992         0.000969     -0.000502     -0.008283
      2.19137      2.96256     12.13994        -0.000049      0.001090     -0.008283
      4.04264      0.11894      6.13611        -0.000845      0.006275      0.000652
      9.20981      3.44156      6.13611        -0.005012     -0.003869      0.000652
      3.74875      6.25515      6.13611         0.005857     -0.002406      0.000652
      1.66169      9.60141      6.43922         0.002044      0.003356      0.001415
     -3.47883      6.45400      6.43922        -0.003929      0.000092      0.001415
      1.81716      3.57589      6.43923         0.001885     -0.003448      0.001415
     -1.61984      9.72409      3.00534         0.004971      0.000649     -0.000776
     -1.94432      3.55077      3.00533        -0.003048      0.003980     -0.000776
      3.56416      6.35643      3.00534        -0.001923     -0.004629     -0.000776
      3.02317      0.09903      9.47095         0.000285     -0.004376      0.004434
      9.73680      2.56863      9.47095         0.003647      0.002435      0.004434
      4.24124      7.14800      9.47094        -0.003932      0.001941      0.004434
      1.81973      9.75436      3.17833         0.000668      0.002124     -0.000043
     -3.69032      6.51440      3.17832        -0.002174     -0.000484     -0.000043
      1.87059      3.36253      3.17833         0.001506     -0.001641     -0.000043
      0.00000      0.00000      0.14522        -0.000000      0.000000     -0.012581
      0.00000      0.00000      6.02513         0.000000     -0.000000      0.007257
      5.66707      3.27188      9.18895        -0.000000      0.000000     -0.005927
      0.00000      6.54377      9.13937         0.000000     -0.000000      0.053885
      5.66707      3.27188      2.98532         0.000000     -0.000000      0.002994
      0.00000      6.54377      0.47753        -0.000000      0.000000     -0.048539
 -----------------------------------------------------------------------------------
    total drift:                                0.007137     -0.012600     -0.001962


--------------------------------------------------------------------------------------------------------



  FREE ENERGIE OF THE ION-ELECTRON SYSTEM (eV)
  ---------------------------------------------------
  free  energy   TOTEN  =      -257.76523377 eV

  energy  without entropy=     -257.76523377  energy(sigma->0) =     -257.76523377
 
 d Force = 0.7689354E-03[-0.175E-03, 0.171E-02]  d Energy = 0.7891344E-03-0.202E-04
 d Force =-0.6339027E+01[-0.636E+01,-0.632E+01]  d Ewald  =-0.6339038E+01 0.103E-04


--------------------------------------------------------------------------------------------------------


    POTLOK:  cpu time    0.0698: real time    0.0698


--------------------------------------------------------------------------------------------------------




--------------------------------------------------------------------------------------------------------


    WAVPRE:  cpu time    0.0309: real time    0.0331
    FEWALD:  cpu time    0.0012: real time    0.0012
    ORTHCH:  cpu time    0.2363: real time    0.2363
     LOOP+:  cpu time   13.8200: real time   13.8491


--------------------------------------- Iteration      4(   1)  ---------------------------------------


    POTLOK:  cpu time    0.0661: real time    0.0680
    SETDIJ:  cpu time    0.0054: real time    0.0054
     EDDAV:  cpu time    1.4422: real time    1.4426
       DOS:  cpu time    0.0009: real time    0.0009
    CHARGE:  cpu time    0.1207: real time    0.1207
    MIXING:  cpu time    0.0017: real time    0.0017
    --------------------------------------------
      LOOP:  cpu time    1.6370: real time    1.6393

 eigenvalue-minimisations  :   480
 total energy-change (2. order) :-0.7396979E-04  (-0.1315068E-01)
 number of electron     335.9999978 magnetization 
 augmentation part      -21.1964418 magnetization 

 Broyden mixing:
  rms(total) = 0.61401E-02    rms(broyden)= 0.61393E-02
  rms(prec ) = 0.70869E-02
  weight for this iteration     100.00

 Free energy of the ion-electron system (eV)
  ---------------------------------------------------
  alpha Z        PSCENC =       571.58137139
  Ewald energy   TEWEN  =    -15166.13181903
  -Hartree energ DENC   =     -5320.33850962
  -exchange      EXHF   =         0.00000000
  -V(xc)+E(xc)   XCENC  =       919.13967021
  PAW double counting   =     11943.26129204   -11737.52712427
  entropy T*S    EENTRO =        -0.00000000
  eigenvalues    EBANDS =     -2590.54811255
  atomic energy  EATOM  =     21122.79792691
  Solvation  Ediel_sol  =         0.00000000
  ---------------------------------------------------
  free energy    TOTEN  =      -257.76530491 eV

  energy without entropy =     -257.76530491  energy(sigma->0) =     -257.76530491


--------------------------------------------------------------------------------------------------------




--------------------------------------- Iteration      4(   2)  ---------------------------------------


    POTLOK:  cpu time    0.0653: real time    0.0691
    SETDIJ:  cpu time    0.0054: real time    0.0054
     EDDAV:  cpu time    1.7437: real time    1.7439
       DOS:  cpu time    0.0002: real time    0.0002
    CHARGE:  cpu time    0.1211: real time    0.1211
    MIXING:  cpu time    0.0018: real time    0.0018
    --------------------------------------------
      LOOP:  cpu time    1.9375: real time    1.9416

 eigenvalue-minimisations  :   600
 total energy-change (2. order) :-0.5274823E-03  (-0.5702564E-03)
 number of electron     335.9999978 magnetization 
 augmentation part      -21.1962458 magnetization 

 Broyden mixing:
  rms(total) = 0.19864E-02    rms(broyden)= 0.19833E-02
  rms(prec ) = 0.27842E-02
  weight for this iteration     100.00

 eigenvalues of (default mixing * dielectric matrix)
  average eigenvalue GAMMA=   0.8744
  0.8744

 Free energy of the ion-electron system (eV)
  ---------------------------------------------------
  alpha Z        PSCENC =       571.58137139
  Ewald energy   TEWEN  =    -15166.13181903
  -Hartree energ DENC   =     -5320.33615350
  -exchange      EXHF   =         0.00000000
  -V(xc)+E(xc)   XCENC  =       919.13889901
  PAW double counting   =     11943.30100710   -11737.56686494
  entropy T*S    EENTRO =        -0.00000000
  eigenvalues    EBANDS =     -2590.55019934
  atomic energy  EATOM  =     21122.79792691
  Solvation  Ediel_sol  =         0.00000000
  ---------------------------------------------------
  free energy    TOTEN  =      -257.76583240 eV

  energy without entropy =     -257.76583240  energy(sigma->0) =     -257.76583240


--------------------------------------------------------------------------------------------------------




--------------------------------------- Iteration      4(   3)  ---------------------------------------


    POTLOK:  cpu time    0.0658: real time    0.0694
    SETDIJ:  cpu time    0.0056: real time    0.0056
     EDDAV:  cpu time    2.0374: real time    2.0378
       DOS:  cpu time    0.0002: real time    0.0002
    CHARGE:  cpu time    0.1212: real time    0.1212
    MIXING:  cpu time    0.0017: real time    0.0017
    --------------------------------------------
      LOOP:  cpu time    2.2319: real time    2.2358

 eigenvalue-minimisations  :   720
 total energy-change (2. order) : 0.5839291E-05  (-0.9117977E-05)
 number of electron     335.9999978 magnetization 
 augmentation part      -21.1964139 magnetization 

 Broyden mixing:
  rms(total) = 0.16485E-02    rms(broyden)= 0.16484E-02
  rms(prec ) = 0.22782E-02
  weight for this iteration     100.00

 eigenvalues of (default mixing * dielectric matrix)
  average eigenvalue GAMMA=   1.3562
  1.1909  1.5216

 Free energy of the ion-electron system (eV)
  ---------------------------------------------------
  alpha Z        PSCENC =       571.58137139
  Ewald energy   TEWEN  =    -15166.13181903
  -Hartree energ DENC   =     -5320.34615449
  -exchange      EXHF   =         0.00000000
  -V(xc)+E(xc)   XCENC  =       919.13852078
  PAW double counting   =     11943.34034062   -11737.60591291
  entropy T*S    EENTRO =        -0.00000000
  eigenvalues    EBANDS =     -2590.54009984
  atomic energy  EATOM  =     21122.79792691
  Solvation  Ediel_sol  =         0.00000000
  ---------------------------------------------------
  free energy    TOTEN  =      -257.76582656 eV

  energy without entropy =     -257.76582656  energy(sigma->0) =     -257.76582656


--------------------------------------------------------------------------------------------------------




--------------------------------------- Iteration      4(   4)  ---------------------------------------


    POTLOK:  cpu time    0.0658: real time    0.0690
    SETDIJ:  cpu time    0.0055: real time    0.0055
     EDDAV:  cpu time    1.6060: real time    1.6063
       DOS:  cpu time    0.0003: real time    0.0003
    CHARGE:  cpu time    0.1208: real time    0.1208
    MIXING:  cpu time    0.0019: real time    0.0019
    --------------------------------------------
      LOOP:  cpu time    1.8002: real time    1.8036

 eigenvalue-minimisations  :   540
 total energy-change (2. order) : 0.1343729E-04  (-0.4399128E-05)
 number of electron     335.9999978 magnetization 
 augmentation part      -21.1964473 magnetization 

 Broyden mixing:
  rms(total) = 0.62730E-03    rms(broyden)= 0.62729E-03
  rms(prec ) = 0.76614E-03
  weight for this iteration     100.00

 eigenvalues of (default mixing * dielectric matrix)
  average eigenvalue GAMMA=   1.5763
  2.7525  0.9882  0.9882

 Free energy of the ion-electron system (eV)
  ---------------------------------------------------
  alpha Z        PSCENC =       571.58137139
  Ewald energy   TEWEN  =    -15166.13181903
  -Hartree energ DENC   =     -5320.36785489
  -exchange      EXHF   =         0.00000000
  -V(xc)+E(xc)   XCENC  =       919.13812401
  PAW double counting   =     11943.42597943   -11737.69066555
  entropy T*S    EENTRO =        -0.00000000
  eigenvalues    EBANDS =     -2590.51887540
  atomic energy  EATOM  =     21122.79792691
  Solvation  Ediel_sol  =         0.00000000
  ---------------------------------------------------
  free energy    TOTEN  =      -257.76581312 eV

  energy without entropy =     -257.76581312  energy(sigma->0) =     -257.76581312


--------------------------------------------------------------------------------------------------------




--------------------------------------- Iteration      4(   5)  ---------------------------------------


    POTLOK:  cpu time    0.0658: real time    0.0693
    SETDIJ:  cpu time    0.0055: real time    0.0055
     EDDAV:  cpu time    1.3340: real time    1.3342
       DOS:  cpu time    0.0002: real time    0.0002
    CHARGE:  cpu time    0.1220: real time    0.1220
    MIXING:  cpu time    0.0018: real time    0.0018
    --------------------------------------------
      LOOP:  cpu time    1.5293: real time    1.5331

 eigenvalue-minimisations  :   420
 total energy-change (2. order) :-0.1177119E-05  (-0.1286976E-05)
 number of electron     335.9999978 magnetization 
 augmentation part      -21.1964812 magnetization 

 Broyden mixing:
  rms(total) = 0.46577E-03    rms(broyden)= 0.46577E-03
  rms(prec ) = 0.54772E-03
  weight for this iteration     100.00

 eigenvalues of (default mixing * dielectric matrix)
  average eigenvalue GAMMA=   1.8330
  3.6015  1.4315  1.4315  0.8675

 Free energy of the ion-electron system (eV)
  ---------------------------------------------------
  alpha Z        PSCENC =       571.58137139
  Ewald energy   TEWEN  =    -15166.13181903
  -Hartree energ DENC   =     -5320.37135988
  -exchange      EXHF   =         0.00000000
  -V(xc)+E(xc)   XCENC  =       919.13791544
  PAW double counting   =     11943.47827374   -11737.74271157
  entropy T*S    EENTRO =        -0.00000000
  eigenvalues    EBANDS =     -2590.51541130
  atomic energy  EATOM  =     21122.79792691
  Solvation  Ediel_sol  =         0.00000000
  ---------------------------------------------------
  free energy    TOTEN  =      -257.76581430 eV

  energy without entropy =     -257.76581430  energy(sigma->0) =     -257.76581430


--------------------------------------------------------------------------------------------------------




--------------------------------------- Iteration      4(   6)  ---------------------------------------


    POTLOK:  cpu time    0.0697: real time    0.0700
    SETDIJ:  cpu time    0.0055: real time    0.0055
     EDDAV:  cpu time    1.3358: real time    1.3360
       DOS:  cpu time    0.0002: real time    0.0002
    --------------------------------------------
      LOOP:  cpu time    1.4111: real time    1.4116

 eigenvalue-minimisations  :   420
 total energy-change (2. order) :-0.5367147E-06  (-0.1843041E-06)
 number of electron     335.9999978 magnetization 
 augmentation part      -21.1964812 magnetization 

 Free energy of the ion-electron system (eV)
  ---------------------------------------------------
  alpha Z        PSCENC =       571.58137139
  Ewald energy   TEWEN  =    -15166.13181903
  -Hartree energ DENC   =     -5320.36735285
  -exchange      EXHF   =         0.00000000
  -V(xc)+E(xc)   XCENC  =       919.13775766
  PAW double counting   =     11943.53148755   -11737.79596807
  entropy T*S    EENTRO =        -0.00000000
  eigenvalues    EBANDS =     -2590.51921839
  atomic energy  EATOM  =     21122.79792691
  Solvation  Ediel_sol  =         0.00000000
  ---------------------------------------------------
  free energy    TOTEN  =      -257.76581483 eV

  energy without entropy =     -257.76581483  energy(sigma->0) =     -257.76581483


--------------------------------------------------------------------------------------------------------




 average (electrostatic) potential at core
  the test charge radii are     0.9406  0.9748  1.1987
  (the norm of the test charge is              1.0000)
       1 -93.8903       2 -93.8904       3 -93.8903       4 -93.8880       5 -93.8880
       6 -93.8880       7 -93.4915       8 -93.4914       9 -93.4914      10 -93.5305
      11 -93.5306      12 -93.5304      13 -93.8253      14 -93.8253      15 -93.8252
      16 -93.5577      17 -93.5577      18 -93.5577      19 -93.9617      20 -93.9616
      21 -93.9617      22 -93.8750      23 -93.8749      24 -93.8748      25 -93.0192
      26 -93.0193      27 -93.0192      28 -93.5721      29 -93.5721      30 -93.5721
      31 -94.0140      32 -94.0141      33 -94.0140      34 -93.8364      35 -93.8364
      36 -93.8365      37 -28.5567      38 -28.5569      39 -28.5568      40 -28.4291
      41 -28.4292      42 -28.4291      43 -28.5477      44 -28.5477      45 -28.5477
      46 -28.5237      47 -28.5238      48 -28.5236      49 -28.5827      50 -28.5826
      51 -28.5826      52 -28.3798      53 -28.3797      54 -28.3798      55 -40.5122
      56 -40.9786      57 -40.6744      58 -41.0766      59 -40.8925      60 -40.8875
 
 
 
 E-fermi :   0.4037     XC(G=0):  -8.0431     alpha+bet : -8.1532


 k-point     1 :       0.0000    0.0000    0.0000
  band No.  band energies     occupation 
      1     -41.5285      2.00000
      2     -41.4309      2.00000
      3     -41.3494      2.00000
      4     -41.3494      2.00000
      5     -41.1259      2.00000
      6     -40.9717      2.00000
      7     -21.6715      2.00000
      8     -21.6279      2.00000
      9     -21.6279      2.00000
     10     -21.5444      2.00000
     11     -21.5300      2.00000
     12     -21.5300      2.00000
     13     -21.4676      2.00000
     14     -21.4676      2.00000
     15     -21.4626      2.00000
     16     -21.4626      2.00000
     17     -21.4581      2.00000
     18     -21.4422      2.00000
     19     -21.2315      2.00000
     20     -21.2298      2.00000
     21     -21.2298      2.00000
     22     -21.0907      2.00000
     23     -21.0907      2.00000
     24     -21.0817      2.00000
     25     -13.8367      2.00000
     26     -13.6980      2.00000
     27     -13.6296      2.00000
     28     -13.5301      2.00000
     29     -13.5301      2.00000
     30     -13.4751      2.00000
     31     -13.4723      2.00000
     32     -13.4723      2.00000
     33     -13.4524      2.00000
     34     -13.4523      2.00000
     35     -13.4238      2.00000
     36     -13.4238      2.00000
     37     -13.3747      2.00000
     38     -13.3747      2.00000
     39     -13.3623      2.00000
     40     -13.3509      2.00000
     41     -13.3369      2.00000
     42     -13.3368      2.00000
     43     -13.2714      2.00000
     44     -13.2665      2.00000
     45     -13.2665      2.00000
     46     -13.2359      2.00000
     47     -13.2182      2.00000
     48     -13.1367      2.00000
     49     -13.1367      2.00000
     50     -13.0646      2.00000
     51     -13.0645      2.00000
     52     -13.0315      2.00000
     53     -13.0314      2.00000
     54     -13.0003      2.00000
     55     -12.9422      2.00000
     56     -12.9421      2.00000
     57     -12.9287      2.00000
     58     -12.5978      2.00000
     59     -12.5894      2.00000
     60     -12.5894      2.00000
     61      -3.2584      2.00000
     62      -3.1497      2.00000
     63      -3.0377      2.00000
     64      -3.0377      2.00000
     65      -2.9364      2.00000
     66      -2.8977      2.00000
     67      -2.8977      2.00000
     68      -2.8886      2.00000
     69      -2.8189      2.00000
     70      -2.7984      2.00000
     71      -2.7984      2.00000
     72      -2.7618      2.00000
     73      -2.7618      2.00000
     74      -2.6949      2.00000
     75      -2.6949      2.00000
     76      -2.6889      2.00000
     77      -2.6692      2.00000
     78      -2.6692      2.00000
     79      -2.6329      2.00000
     80      -2.5732      2.00000
     81      -2.5732      2.00000
     82      -2.5314      2.00000
     83      -2.5314      2.00000
     84      -2.4854      2.00000
     85      -2.4854      2.00000
     86      -2.4302      2.00000
     87      -2.4095      2.00000
     88      -2.4095      2.00000
     89      -2.3561      2.00000
     90      -2.3334      2.00000
     91      -2.3298      2.00000
     92      -2.3298      2.00000
     93      -2.2892      2.00000
     94      -2.2465      2.00000
     95      -2.2059      2.00000
     96      -2.2058      2.00000
     97      -2.1787      2.00000
     98      -2.1231      2.00000
     99      -2.1231      2.00000
    100      -2.0728      2.00000
    101      -2.0152      2.00000
    102      -2.0151      2.00000
    103      -1.9306      2.00000
    104      -1.9122      2.00000
    105      -1.8984      2.00000
    106      -1.8984      2.00000
    107      -1.8928      2.00000
    108      -1.8583      2.00000
    109      -1.8583      2.00000
    110      -1.8174      2.00000
    111      -1.7553      2.00000
    112      -1.7553      2.00000
    113      -1.6983      2.00000
    114      -1.6983      2.00000
    115      -1.6806      2.00000
    116      -1.6353      2.00000
    117      -1.6352      2.00000
    118      -1.6250      2.00000
    119      -1.5534      2.00000
    120      -1.5183      2.00000
    121      -1.5183      2.00000
    122      -1.4761      2.00000
    123      -1.4761      2.00000
    124      -1.4577      2.00000
    125      -1.3749      2.00000
    126      -1.3545      2.00000
    127      -1.3545      2.00000
    128      -1.3421      2.00000
    129      -1.2789      2.00000
    130      -1.2679      2.00000
    131      -1.2678      2.00000
    132      -1.2392      2.00000
    133      -1.2392      2.00000
    134      -1.1987      2.00000
    135      -1.1987      2.00000
    136      -1.1566      2.00000
    137      -1.1348      2.00000
    138      -1.1348      2.00000
    139      -1.0921      2.00000
    140      -1.0543      2.00000
    141      -1.0543      2.00000
    142      -1.0307      2.00000
    143      -0.9867      2.00000
    144      -0.9866      2.00000
    145      -0.9680      2.00000
    146      -0.9316      2.00000
    147      -0.9316      2.00000
    148      -0.9048      2.00000
    149      -0.8854      2.00000
    150      -0.8854      2.00000
    151      -0.8496      2.00000
    152      -0.8165      2.00000
    153      -0.7928      2.00000
    154      -0.7928      2.00000
    155      -0.7365      2.00000
    156      -0.7365      2.00000
    157      -0.6824      2.00000
    158      -0.6785      2.00000
    159      -0.6785      2.00000
    160      -0.6502      2.00000
    161      -0.6177      2.00000
    162      -0.6177      2.00000
    163      -0.5810      2.00000
    164      -0.5505      2.00000
    165      -0.5498      2.00000
    166      -0.5498      2.00000
    167      -0.1897      2.00000
    168      -0.1897      2.00000
    169       4.0042      0.00000
    170       4.3169      0.00000
    171       4.3169      0.00000
    172       4.3811      0.00000
    173       4.3834      0.00000
    174       4.3834      0.00000
    175       4.4490      0.00000
    176       4.4490      0.00000
    177       4.5291      0.00000
    178       4.5291      0.00000
    179       4.5324      0.00000
    180       4.7427      0.00000
    181       4.7427      0.00000
    182       4.7808      0.00000
    183       4.8840      0.00000
    184       4.8840      0.00000
    185       4.9077      0.00000
    186       4.9784      0.00000
    187       5.4562      0.00000
    188       6.0005      0.00000
    189       6.0005      0.00000
    190       6.2401      0.00000
    191       6.2401      0.00000
    192       6.3706      0.00000
    193       6.3706      0.00000
    194       6.4243      0.00000
    195       6.4243      0.00000
    196       6.5157      0.00000
    197       6.5157      0.00000
    198       6.5968      0.00000
    199       6.6907      0.00000
    200       6.6907      0.00000
    201       6.7004      0.00000
    202       7.0551      0.00000
    203       7.1536      0.00000
    204       7.2508      0.00000
    205       7.2771      0.00000
    206       7.2771      0.00000
    207       7.3675      0.00000
    208       7.3675      0.00000
    209       7.4356      0.00000
    210       7.5114      0.00000
    211       7.5115      0.00000
    212       7.6106      0.00000
    213       7.6939      0.00000
    214       7.7300      0.00000
    215       7.7757      0.00000
    216       7.7757      0.00000
    217       7.9363      0.00000
    218       7.9363      0.00000
    219       8.0351      0.00000
    220       8.0352      0.00000
    221       8.0495      0.00000
    222       8.2101      0.00000
    223       8.2101      0.00000
    224       8.3349      0.00000
    225       8.3349      0.00000
    226       8.3875      0.00000
    227       8.4922      0.00000
    228       8.4922      0.00000
    229       8.6518      0.00000
    230       8.6713      0.00000
    231       8.6713      0.00000
    232       8.7707      0.00000
    233       8.8673      0.00000
    234       8.8673      0.00000
    235       9.0415      0.00000
    236       9.0415      0.00000
    237       9.0581      0.00000
    238       9.0951      0.00000
    239       9.2023      0.00000
    240       9.2023      0.00000


--------------------------------------------------------------------------------------------------------


 soft charge-density along one line, spin component           1
         0         1         2         3         4         5         6         7         8         9
 total charge-density along one line
 
 pseudopotential strength for first ion, spin component:           1
 47.853  -0.017   0.003   0.006  -0.007   0.000   0.000  -0.000
 -0.017   0.019   0.000   0.000  -0.000   0.000   0.000  -0.000
  0.003   0.000   9.156   0.001  -0.001  -0.001  -0.000   0.000
  0.006   0.000   0.001   9.156  -0.002  -0.000  -0.001   0.000
 -0.007  -0.000  -0.001  -0.002   9.157   0.000   0.000  -0.001
  0.000   0.000  -0.001  -0.000   0.000   0.035   0.000  -0.000
  0.000   0.000  -0.000  -0.001   0.000   0.000   0.035  -0.000
 -0.000  -0.000   0.000   0.000  -0.001  -0.000  -0.000   0.035
 total augmentation occupancy for first ion, spin component:           1
  1.919   0.384  -0.013  -0.028   0.030  -0.015  -0.030   0.036
  0.384   0.316   0.072   0.155  -0.171  -0.029  -0.070   0.059
 -0.013   0.072   1.763  -0.014   0.009  -0.359  -0.034   0.024
 -0.028   0.155  -0.014   1.770   0.024  -0.034  -0.347   0.048
  0.030  -0.171   0.009   0.024   1.754   0.024   0.048  -0.381
 -0.015  -0.029  -0.359  -0.034   0.024   0.105   0.022  -0.016
 -0.030  -0.070  -0.034  -0.347   0.048   0.022   0.101  -0.031
  0.036   0.059   0.024   0.048  -0.381  -0.016  -0.031   0.118


------------------------ aborting loop because EDIFF is reached ----------------------------------------


 


 total charge     
 
# of ion       s       p       d       tot
------------------------------------------
    1        1.593   3.573   0.000   5.166
    2        1.593   3.573   0.000   5.166
    3        1.593   3.573   0.000   5.166
    4        1.592   3.579   0.000   5.171
    5        1.592   3.579   0.000   5.171
    6        1.592   3.579   0.000   5.171
    7        1.591   3.587   0.000   5.178
    8        1.591   3.587   0.000   5.178
    9        1.591   3.587   0.000   5.178
   10        1.593   3.575   0.000   5.168
   11        1.593   3.575   0.000   5.168
   12        1.593   3.575   0.000   5.168
   13        1.593   3.585   0.000   5.178
   14        1.593   3.585   0.000   5.178
   15        1.593   3.585   0.000   5.178
   16        1.590   3.588   0.000   5.178
   17        1.590   3.588   0.000   5.178
   18        1.590   3.588   0.000   5.178
   19        1.592   3.577   0.000   5.169
   20        1.592   3.577   0.000   5.169
   21        1.592   3.577   0.000   5.169
   22        1.593   3.579   0.000   5.172
   23        1.593   3.579   0.000   5.172
   24        1.593   3.579   0.000   5.172
   25        1.588   3.587   0.000   5.175
   26        1.588   3.587   0.000   5.175
   27        1.588   3.587   0.000   5.175
   28        1.590   3.588   0.000   5.179
   29        1.590   3.588   0.000   5.179
   30        1.590   3.588   0.000   5.179
   31        1.596   3.565   0.000   5.160
   32        1.596   3.565   0.000   5.160
   33        1.596   3.565   0.000   5.160
   34        1.593   3.577   0.000   5.170
   35        1.593   3.577   0.000   5.170
   36        1.593   3.577   0.000   5.170
   37        0.056   0.102   0.000   0.158
   38        0.056   0.102   0.000   0.158
   39        0.056   0.102   0.000   0.158
   40        0.060   0.110   0.000   0.169
   41        0.060   0.110   0.000   0.169
   42        0.060   0.110   0.000   0.169
   43        0.056   0.102   0.000   0.158
   44        0.056   0.102   0.000   0.158
   45        0.056   0.102   0.000   0.158
   46        0.056   0.104   0.000   0.160
   47        0.056   0.104   0.000   0.160
   48        0.056   0.104   0.000   0.160
   49        0.060   0.106   0.000   0.166
   50        0.060   0.106   0.000   0.166
   51        0.060   0.106   0.000   0.166
   52        0.059   0.109   0.000   0.168
   53        0.059   0.109   0.000   0.168
   54        0.059   0.109   0.000   0.168
   55        2.122   6.130   0.691   8.944
   56        2.121   6.125   0.678   8.923
   57        2.120   6.124   0.677   8.921
   58        2.120   6.119   0.685   8.924
   59        2.122   6.129   0.686   8.936
   60        2.123   6.127   0.703   8.952
--------------------------------------------------
tot         71.079 167.535   4.120 242.734
 
    CHARGE:  cpu time    0.1202: real time    0.1202
    FORLOC:  cpu time    0.0216: real time    0.0216
    FORNL :  cpu time    0.4803: real time    0.4803
    STRESS:  cpu time    1.4984: real time    1.4987
    FORCOR:  cpu time    0.0746: real time    0.0746
    FORHAR:  cpu time    0.0323: real time    0.0323
    MIXING:  cpu time    0.0039: real time    0.0039
    OFIELD:  cpu time    0.0000: real time    0.0000

  FORCE on cell =-STRESS in cart. coord.  units (eV):
  Direction    XX          YY          ZZ          XY          YZ          ZX
  --------------------------------------------------------------------------------------
  Alpha Z   571.58137   571.58137   571.58137
  Ewald   -4927.62134 -4927.62403 -5310.96255    -0.00221    -0.00165    -0.00059
  Hartree  1852.06890  1852.06984  1616.22735     0.00064    -0.00006     0.00034
  E(xc)   -1246.30838 -1246.30834 -1246.97034     0.00002    -0.00002     0.00002
  Local   -3357.86147 -3357.86460 -2735.27112    -0.00099     0.00315    -0.00153
  n-local  2684.62359  2684.62277  2686.64461    -0.00034     0.00044    -0.00028
  augment  -619.16457  -619.16516  -619.64769    -0.00052     0.00012    -0.00006
  Kinetic  5045.34160  5045.34206  5038.47791     0.00023    -0.00017     0.00030
  Fock        0.00000     0.00000     0.00000     0.00000     0.00000     0.00000
  -------------------------------------------------------------------------------------
  Total       2.65681     2.65682     0.07953     0.00000    -0.00000     0.00000
  in kB       3.08545     3.08546     0.09236     0.00000    -0.00000     0.00000
  external pressure =        2.09 kB  Pullay stress =        0.00 kB


 VOLUME and BASIS-vectors are now :
 -----------------------------------------------------------------------------
  energy-cutoff  :      520.00
  volume of cell :     1379.60
      direct lattice vectors                 reciprocal lattice vectors
    11.334128968  0.000003780  0.000002558     0.088229083  0.050939039 -0.000000003
    -5.667061570  9.815647364 -0.000003655    -0.000000034  0.101878131  0.000000024
     0.000002030 -0.000002865 12.400680362    -0.000000018  0.000000020  0.080640737

  length of vectors
    11.334128968 11.334130757 12.400680362     0.101878147  0.101878131  0.080640737


 FORCES acting on ions
    electron-ion (+dipol)            ewald-force                    non-local-force                 convergence-correction
 -----------------------------------------------------------------------------------------------
   -.815E+02 0.464E+02 0.493E+02   0.819E+02 -.465E+02 -.497E+02   -.383E+00 0.109E+00 0.363E+00   0.693E-03 -.476E-03 0.800E-03
   0.585E+00 -.938E+02 0.493E+02   -.679E+00 0.942E+02 -.497E+02   0.974E-01 -.386E+00 0.363E+00   0.662E-04 0.838E-03 0.800E-03
   0.810E+02 0.474E+02 0.493E+02   -.813E+02 -.477E+02 -.497E+02   0.286E+00 0.278E+00 0.363E+00   -.759E-03 -.362E-03 0.800E-03
   0.664E+02 -.276E+02 -.702E+02   -.671E+02 0.275E+02 0.706E+02   0.657E+00 0.137E+00 -.412E+00   -.220E-03 0.385E-03 -.101E-02
   -.571E+02 -.438E+02 -.702E+02   0.573E+02 0.444E+02 0.706E+02   -.210E+00 -.637E+00 -.412E+00   0.443E-03 -.176E-05 -.101E-02
   -.933E+01 0.713E+02 -.702E+02   0.977E+01 -.719E+02 0.706E+02   -.447E+00 0.500E+00 -.412E+00   -.223E-03 -.383E-03 -.101E-02
   -.536E+02 0.350E+02 0.812E+02   0.539E+02 -.355E+02 -.816E+02   -.246E+00 0.496E+00 0.385E+00   -.426E-03 -.270E-03 0.918E-03
   -.349E+01 -.639E+02 0.812E+02   0.379E+01 0.644E+02 -.816E+02   -.307E+00 -.461E+00 0.385E+00   0.446E-03 -.234E-03 0.918E-03
   0.571E+02 0.289E+02 0.812E+02   -.577E+02 -.289E+02 -.816E+02   0.552E+00 -.352E-01 0.385E+00   -.204E-04 0.504E-03 0.918E-03
   0.541E+02 -.455E+02 -.499E+02   -.542E+02 0.460E+02 0.503E+02   0.116E+00 -.516E+00 -.421E+00   -.704E-03 -.251E-03 -.444E-03
   -.664E+02 -.241E+02 -.499E+02   0.669E+02 0.240E+02 0.503E+02   -.505E+00 0.158E+00 -.421E+00   0.135E-03 0.736E-03 -.444E-03
   0.123E+02 0.696E+02 -.499E+02   -.127E+02 -.700E+02 0.503E+02   0.389E+00 0.359E+00 -.421E+00   0.570E-03 -.484E-03 -.444E-03
   0.630E+02 -.471E+02 -.749E+02   -.635E+02 0.473E+02 0.747E+02   0.442E+00 -.261E+00 0.240E+00   -.108E-02 0.496E-03 0.229E-03
   0.923E+01 0.781E+02 -.749E+02   -.923E+01 -.787E+02 0.747E+02   0.535E-02 0.513E+00 0.240E+00   0.113E-03 -.119E-02 0.229E-03
   -.723E+02 -.311E+02 -.749E+02   0.727E+02 0.313E+02 0.747E+02   -.447E+00 -.252E+00 0.240E+00   0.972E-03 0.692E-03 0.229E-03
   -.659E+02 0.302E+02 -.558E+02   0.662E+02 -.299E+02 0.563E+02   -.276E+00 -.305E+00 -.562E+00   0.533E-03 0.163E-04 -.954E-03
   0.591E+02 0.420E+02 -.558E+02   -.590E+02 -.424E+02 0.563E+02   -.126E+00 0.391E+00 -.562E+00   -.253E-03 -.470E-03 -.954E-03
   0.678E+01 -.722E+02 -.558E+02   -.719E+01 0.723E+02 0.563E+02   0.402E+00 -.861E-01 -.562E+00   -.281E-03 0.454E-03 -.954E-03
   0.657E+02 -.343E+02 0.698E+02   -.661E+02 0.346E+02 -.699E+02   0.321E+00 -.203E+00 0.103E+00   -.489E-03 0.588E-03 -.327E-04
   -.311E+01 0.741E+02 0.698E+02   0.310E+01 -.745E+02 -.699E+02   0.156E-01 0.379E+00 0.103E+00   -.264E-03 -.718E-03 -.327E-04
   -.626E+02 -.398E+02 0.698E+02   0.630E+02 0.399E+02 -.699E+02   -.336E+00 -.176E+00 0.103E+00   0.753E-03 0.130E-03 -.327E-04
   -.640E+02 0.359E+02 -.710E+02   0.642E+02 -.363E+02 0.716E+02   -.160E+00 0.368E+00 -.559E+00   0.889E-03 -.361E-03 -.127E-02
   0.631E+02 0.375E+02 -.711E+02   -.635E+02 -.375E+02 0.716E+02   0.399E+00 -.451E-01 -.559E+00   -.758E-03 -.589E-03 -.127E-02
   0.947E+00 -.734E+02 -.710E+02   -.710E+00 0.737E+02 0.716E+02   -.238E+00 -.323E+00 -.559E+00   -.131E-03 0.951E-03 -.127E-02
   0.534E+02 -.318E+02 -.187E+02   -.545E+02 0.324E+02 0.186E+02   0.115E+01 -.653E+00 0.604E-01   0.670E-03 -.550E-03 0.237E-04
   0.828E+00 0.621E+02 -.187E+02   -.817E+00 -.634E+02 0.186E+02   -.908E-02 0.132E+01 0.604E-01   0.142E-03 0.856E-03 0.237E-04
   -.542E+02 -.303E+02 -.187E+02   0.553E+02 0.310E+02 0.186E+02   -.114E+01 -.668E+00 0.604E-01   -.812E-03 -.306E-03 0.237E-04
   0.693E+02 -.296E+02 0.529E+02   -.696E+02 0.298E+02 -.528E+02   0.365E+00 -.135E+00 -.133E+00   -.444E-03 0.229E-03 0.599E-03
   -.603E+02 -.452E+02 0.530E+02   0.606E+02 0.454E+02 -.528E+02   -.300E+00 -.249E+00 -.133E+00   0.421E-03 0.270E-03 0.599E-03
   -.898E+01 0.748E+02 0.529E+02   0.905E+01 -.752E+02 -.528E+02   -.657E-01 0.384E+00 -.133E+00   0.234E-04 -.499E-03 0.599E-03
   -.148E+03 0.863E+02 0.936E+01   0.150E+03 -.868E+02 -.944E+01   -.140E+01 0.437E+00 0.849E-01   -.902E-03 0.171E-03 0.426E-03
   -.696E+00 -.171E+03 0.936E+01   0.381E+00 0.173E+03 -.944E+01   0.322E+00 -.143E+01 0.849E-01   0.303E-03 -.867E-03 0.426E-03
   0.149E+03 0.851E+02 0.936E+01   -.150E+03 -.861E+02 -.944E+01   0.108E+01 0.995E+00 0.849E-01   0.599E-03 0.697E-03 0.426E-03
   0.569E+02 -.416E+02 0.747E+02   -.570E+02 0.421E+02 -.755E+02   0.574E-01 -.450E+00 0.840E+00   -.609E-03 -.465E-04 0.112E-02
   -.645E+02 -.285E+02 0.747E+02   0.649E+02 0.283E+02 -.755E+02   -.418E+00 0.175E+00 0.840E+00   0.264E-03 0.550E-03 0.112E-02
   0.760E+01 0.701E+02 0.747E+02   -.796E+01 -.704E+02 -.755E+02   0.361E+00 0.275E+00 0.840E+00   0.344E-03 -.504E-03 0.112E-02
   0.657E+01 -.132E+01 0.117E+01   -.600E+01 0.169E+01 -.143E+01   -.573E+00 -.371E+00 0.249E+00   0.352E-04 -.233E-04 0.368E-04
   -.215E+01 0.635E+01 0.117E+01   0.154E+01 -.604E+01 -.143E+01   0.608E+00 -.311E+00 0.249E+00   0.255E-05 0.421E-04 0.368E-04
   -.443E+01 -.503E+01 0.117E+01   0.446E+01 0.435E+01 -.143E+01   -.349E-01 0.682E+00 0.249E+00   -.378E-04 -.189E-04 0.368E-04
   0.463E+00 0.333E+01 -.360E+00   0.198E+00 -.329E+01 0.220E+00   -.663E+00 -.398E-01 0.142E+00   -.251E-04 -.134E-04 -.177E-04
   -.312E+01 -.127E+01 -.360E+00   0.275E+01 0.182E+01 0.220E+00   0.366E+00 -.554E+00 0.142E+00   0.241E-04 -.150E-04 -.177E-04
   0.266E+01 -.207E+01 -.360E+00   -.295E+01 0.147E+01 0.220E+00   0.297E+00 0.594E+00 0.142E+00   0.956E-06 0.284E-04 -.177E-04
   0.502E-01 0.147E+01 0.533E+00   -.611E+00 -.159E+01 -.535E+00   0.564E+00 0.123E+00 0.365E-02   0.214E-04 -.675E-05 -.223E-04
   -.130E+01 -.692E+00 0.533E+00   0.168E+01 0.267E+00 -.535E+00   -.389E+00 0.426E+00 0.365E-02   -.485E-05 0.219E-04 -.223E-04
   0.125E+01 -.778E+00 0.533E+00   -.107E+01 0.132E+01 -.535E+00   -.175E+00 -.550E+00 0.365E-02   -.165E-04 -.151E-04 -.223E-04
   0.470E+01 0.479E+01 -.118E+01   -.419E+01 -.490E+01 0.122E+01   -.509E+00 0.117E+00 -.411E-01   -.861E-05 0.153E-04 0.603E-05
   -.650E+01 0.168E+01 -.118E+01   0.634E+01 -.118E+01 0.122E+01   0.153E+00 -.500E+00 -.411E-01   -.891E-05 -.151E-04 0.603E-05
   0.179E+01 -.647E+01 -.118E+01   -.215E+01 0.608E+01 0.122E+01   0.356E+00 0.383E+00 -.411E-01   0.175E-04 -.170E-06 0.603E-05
   -.396E+00 0.729E+00 0.176E+01   0.175E-02 -.509E+00 -.140E+01   0.393E+00 -.226E+00 -.358E+00   -.264E-05 -.643E-06 -.738E-05
   -.433E+00 -.707E+00 0.176E+01   0.440E+00 0.256E+00 -.140E+01   -.131E-02 0.453E+00 -.358E+00   0.187E-05 -.196E-05 -.740E-05
   0.829E+00 -.211E-01 0.176E+01   -.442E+00 0.253E+00 -.140E+01   -.392E+00 -.228E+00 -.358E+00   0.766E-06 0.260E-05 -.739E-05
   -.286E+01 0.452E+01 -.248E+01   0.247E+01 -.464E+01 0.263E+01   0.385E+00 0.118E+00 -.151E+00   0.840E-05 0.140E-04 -.797E-05
   -.249E+01 -.474E+01 -.248E+01   0.278E+01 0.446E+01 0.263E+01   -.295E+00 0.275E+00 -.151E+00   -.163E-04 0.262E-06 -.797E-05
   0.535E+01 0.213E+00 -.248E+01   -.526E+01 0.178E+00 0.263E+01   -.905E-01 -.392E+00 -.151E+00   0.795E-05 -.143E-04 -.796E-05
   -.145E-02 -.685E-03 -.889E+01   -.197E-03 -.264E-03 0.818E+01   0.116E-06 -.164E-06 0.708E+00   0.580E-07 0.370E-07 -.945E-04
   0.612E-03 -.107E-02 -.258E+00   0.293E-03 -.380E-03 0.699E+00   -.718E-07 0.101E-06 -.438E+00   0.113E-07 -.233E-08 0.132E-03
   -.185E-03 -.753E-03 -.135E+01   -.347E-03 0.556E-04 0.152E+01   -.304E-07 0.428E-07 -.185E+00   0.505E-07 0.918E-07 -.240E-04
   0.736E-03 -.144E-02 0.131E+03   0.411E-03 -.324E-03 -.131E+03   -.252E-07 0.356E-07 -.154E+00   0.393E-07 0.270E-07 -.355E-03
   -.377E-03 0.177E-02 -.103E+01   -.396E-03 0.515E-03 0.808E+00   0.363E-07 -.513E-07 0.222E+00   0.808E-08 -.204E-07 -.454E-03
   -.149E-02 -.251E-03 -.107E+03   0.544E-03 -.602E-04 0.107E+03   -.414E-07 0.584E-07 -.253E+00   0.980E-09 0.939E-07 -.354E-03
 -----------------------------------------------------------------------------------------------
   0.714E-02 -.126E-01 0.595E+00   -.372E-13 -.143E-12 0.853E-13   -.974E-07 0.137E-06 -.595E+00   0.193E-06 0.579E-06 0.257E-04
 
 
 POSITION                                       TOTAL-FORCE (eV/Angst)
 -----------------------------------------------------------------------------------
     -3.66181      8.65468      4.72505         0.013105     -0.010418      0.002100
      0.00280      2.31708      4.72505         0.002470      0.016558      0.002100
      3.65901      8.65954      4.72505        -0.015575     -0.006140      0.002100
      9.40213      1.13366      7.47032        -0.007444      0.010312     -0.002542
      1.94778      1.10633      7.47032         0.012653      0.001291     -0.002542
      5.65129      7.57566      7.47032        -0.005208     -0.011603     -0.002542
     -3.93991      8.57960     10.95009         0.001038     -0.003047     -0.005165
      0.20689      2.11378     10.95010         0.002120      0.002422     -0.005165
      3.73305      8.93793     10.95009        -0.003158      0.000625     -0.005165
      9.32817      1.05094      1.51943        -0.009660      0.001197      0.001354
      1.91312      1.21174      1.51943         0.005867      0.007767      0.001354
      5.75991      7.55297      1.51942         0.003793     -0.008964      0.001354
     -1.98455      7.66181      1.70766        -0.011536      0.009476      0.007736
      0.02402      4.26607      1.70767        -0.002438     -0.014728      0.007736
      1.96053      7.70342      1.70766         0.013974      0.005252      0.007736
      7.65832      2.33701     10.66788         0.009258     -0.002222      0.000045
      3.86182      2.01485     10.66788        -0.006553     -0.006907      0.000045
      5.48108      5.46379     10.66788        -0.002705      0.009129      0.000045
     -1.89870      7.83380      7.88871        -0.010740      0.008747      0.001624
     -0.16785      4.25442      7.88871        -0.002205     -0.013675      0.001624
      2.06656      7.54308      7.88871         0.012945      0.004928      0.001624
      7.65872      2.22060      4.40904         0.013368     -0.002718     -0.007667
      3.76080      2.07270      4.40904        -0.009037     -0.010218     -0.007667
      5.58167      5.52236      4.40904        -0.004330      0.012935     -0.007667
      2.08716      5.27075      4.70990         0.003819     -0.005075      0.003340
      0.05888      8.98780      4.70990         0.002486      0.005845      0.003340
     -2.14604      5.37273      4.70989        -0.006304     -0.000770      0.003340
      3.75865      4.38393      7.70961        -0.009379      0.001900     -0.001451
      7.58432      4.36860      7.70960         0.006335      0.007172     -0.001451
      5.65822      1.06312      7.70962         0.003044     -0.009073     -0.001451
      1.69176      5.49502     11.00423        -0.000582     -0.008005      0.004645
      0.06236      8.53325     11.00423         0.007223      0.003499      0.004645
     -1.75412      5.60303     11.00423        -0.006642      0.004506      0.004645
      3.67358      4.29290      1.56803        -0.010292      0.001207     -0.002395
      7.54803      4.48778      1.56802         0.006192      0.008310     -0.002395
      5.77958      1.03496      1.56803         0.004101     -0.009517     -0.002395
      7.67282      0.41646     12.13944        -0.000027      0.000459     -0.006812
      7.13707      6.43663     12.13943        -0.000384     -0.000253     -0.006812
      2.19133      2.96256     12.13945         0.000411     -0.000206     -0.006812
      4.04265      0.11932      6.13587        -0.001683      0.006123      0.001438
      9.20947      3.44138      6.13586        -0.004461     -0.004519      0.001438
      3.74908      6.25496      6.13586         0.006144     -0.001604      0.001438
      1.66178      9.60162      6.43905         0.003206      0.002632      0.002055
     -3.47906      6.45398      6.43904        -0.003882      0.001460      0.002055
      1.81729      3.57570      6.43905         0.000676     -0.004092      0.002055
     -1.61930      9.72412      3.00538         0.004291      0.000025     -0.001054
     -1.94461      3.55122      3.00537        -0.002167      0.003703     -0.001054
      3.56392      6.35594      3.00538        -0.002124     -0.003728     -0.001054
      3.02333      0.09878      9.47133        -0.001232     -0.005863      0.001948
      9.73693      2.56889      9.47133         0.005694      0.001865      0.001948
      4.24095      7.14798      9.47133        -0.004462      0.003998      0.001948
      1.81970      9.75452      3.17842         0.001714      0.001460     -0.000577
     -3.69045      6.51429      3.17842        -0.002121      0.000754     -0.000577
      1.87075      3.36248      3.17843         0.000408     -0.002214     -0.000577
      0.00000      0.00000      0.14508        -0.000000      0.000000     -0.004688
      0.00000      0.00000      6.02534         0.000000     -0.000000      0.002151
      5.66707      3.27188      9.18874        -0.000000      0.000000     -0.010018
      0.00000      6.54377      9.14085         0.000000     -0.000000      0.031272
      5.66707      3.27188      2.98537         0.000000     -0.000000      0.003761
      0.00000      6.54377      0.47627        -0.000000      0.000000     -0.018344
 -----------------------------------------------------------------------------------
    total drift:                                0.007136     -0.012602      0.000088


--------------------------------------------------------------------------------------------------------



  FREE ENERGIE OF THE ION-ELECTRON SYSTEM (eV)
  ---------------------------------------------------
  free  energy   TOTEN  =      -257.76581483 eV

  energy  without entropy=     -257.76581483  energy(sigma->0) =     -257.76581483
 
 d Force = 0.5751086E-03[ 0.444E-03, 0.706E-03]  d Energy = 0.5810646E-03-0.596E-05
 d Force =-0.1761114E+01[-0.177E+01,-0.176E+01]  d Ewald  =-0.1761116E+01 0.238E-05


--------------------------------------------------------------------------------------------------------


    POTLOK:  cpu time    0.0723: real time    0.0724


--------------------------------------------------------------------------------------------------------


 Conjugate gradient step on ions:
 trial-energy change:   -0.000581  1 .order   -0.000575   -0.000706   -0.000444
  (g-gl).g = 0.750E-03      g.g   = 0.684E-03  gl.gl    = 0.886E-03
 g(Force)  = 0.684E-03   g(Stress)= 0.000E+00 ortho     =-0.658E-04
 gamma     =   0.84720
 trial     =   1.12265
 opt step  =   3.02996  (harmonic =   3.02996) maximal distance =0.00400083
 next E    =  -257.766186   (d E  =  -0.00095)


--------------------------------------------------------------------------------------------------------


    WAVPRE:  cpu time    0.0307: real time    0.0325
    FEWALD:  cpu time    0.0011: real time    0.0011
    ORTHCH:  cpu time    0.2368: real time    0.2368
     LOOP+:  cpu time   13.1351: real time   13.1595


--------------------------------------- Iteration      5(   1)  ---------------------------------------


    POTLOK:  cpu time    0.0660: real time    0.0670
    SETDIJ:  cpu time    0.0055: real time    0.0055
     EDDAV:  cpu time    1.4562: real time    1.4566
       DOS:  cpu time    0.0009: real time    0.0009
    CHARGE:  cpu time    0.1226: real time    0.1226
    MIXING:  cpu time    0.0031: real time    0.0031
    --------------------------------------------
      LOOP:  cpu time    1.6542: real time    1.6557

 eigenvalue-minimisations  :   480
 total energy-change (2. order) : 0.1105751E-02  (-0.3799762E-01)
 number of electron     335.9999975 magnetization 
 augmentation part      -21.1966101 magnetization 

 Broyden mixing:
  rms(total) = 0.10358E-01    rms(broyden)= 0.10356E-01
  rms(prec ) = 0.11946E-01
  weight for this iteration     100.00

 Free energy of the ion-electron system (eV)
  ---------------------------------------------------
  alpha Z        PSCENC =       571.58137139
  Ewald energy   TEWEN  =    -15163.12147563
  -Hartree energ DENC   =     -5323.16979321
  -exchange      EXHF   =         0.00000000
  -V(xc)+E(xc)   XCENC  =       919.16499202
  PAW double counting   =     11943.56975710   -11737.83423544
  entropy T*S    EENTRO =        -0.00000000
  eigenvalues    EBANDS =     -2590.75325169
  atomic energy  EATOM  =     21122.79792691
  Solvation  Ediel_sol  =         0.00000000
  ---------------------------------------------------
  free energy    TOTEN  =      -257.76470855 eV

  energy without entropy =     -257.76470855  energy(sigma->0) =     -257.76470855


--------------------------------------------------------------------------------------------------------




--------------------------------------- Iteration      5(   2)  ---------------------------------------


    POTLOK:  cpu time    0.0660: real time    0.0696
    SETDIJ:  cpu time    0.0058: real time    0.0058
     EDDAV:  cpu time    1.7447: real time    1.7450
       DOS:  cpu time    0.0002: real time    0.0002
    CHARGE:  cpu time    0.1205: real time    0.1205
    MIXING:  cpu time    0.0022: real time    0.0022
    --------------------------------------------
      LOOP:  cpu time    1.9394: real time    1.9433

 eigenvalue-minimisations  :   600
 total energy-change (2. order) :-0.1525509E-02  (-0.1645480E-02)
 number of electron     335.9999975 magnetization 
 augmentation part      -21.1963563 magnetization 

 Broyden mixing:
  rms(total) = 0.33866E-02    rms(broyden)= 0.33814E-02
  rms(prec ) = 0.47596E-02
  weight for this iteration     100.00

 eigenvalues of (default mixing * dielectric matrix)
  average eigenvalue GAMMA=   0.8702
  0.8702

 Free energy of the ion-electron system (eV)
  ---------------------------------------------------
  alpha Z        PSCENC =       571.58137139
  Ewald energy   TEWEN  =    -15163.12147563
  -Hartree energ DENC   =     -5323.17095370
  -exchange      EXHF   =         0.00000000
  -V(xc)+E(xc)   XCENC  =       919.16406218
  PAW double counting   =     11943.63443250   -11737.89919917
  entropy T*S    EENTRO =        -0.00000000
  eigenvalues    EBANDS =     -2590.75239854
  atomic energy  EATOM  =     21122.79792691
  Solvation  Ediel_sol  =         0.00000000
  ---------------------------------------------------
  free energy    TOTEN  =      -257.76623405 eV

  energy without entropy =     -257.76623405  energy(sigma->0) =     -257.76623405


--------------------------------------------------------------------------------------------------------




--------------------------------------- Iteration      5(   3)  ---------------------------------------


    POTLOK:  cpu time    0.0657: real time    0.0689
    SETDIJ:  cpu time    0.0054: real time    0.0054
     EDDAV:  cpu time    2.0368: real time    2.0372
       DOS:  cpu time    0.0002: real time    0.0002
    CHARGE:  cpu time    0.1218: real time    0.1218
    MIXING:  cpu time    0.0018: real time    0.0018
    --------------------------------------------
      LOOP:  cpu time    2.2319: real time    2.2355

 eigenvalue-minimisations  :   720
 total energy-change (2. order) : 0.1807540E-04  (-0.2575863E-04)
 number of electron     335.9999975 magnetization 
 augmentation part      -21.1966160 magnetization 

 Broyden mixing:
  rms(total) = 0.28213E-02    rms(broyden)= 0.28211E-02
  rms(prec ) = 0.39101E-02
  weight for this iteration     100.00

 eigenvalues of (default mixing * dielectric matrix)
  average eigenvalue GAMMA=   1.3878
  1.1622  1.6133

 Free energy of the ion-electron system (eV)
  ---------------------------------------------------
  alpha Z        PSCENC =       571.58137139
  Ewald energy   TEWEN  =    -15163.12147563
  -Hartree energ DENC   =     -5323.19246108
  -exchange      EXHF   =         0.00000000
  -V(xc)+E(xc)   XCENC  =       919.16371214
  PAW double counting   =     11943.69964632   -11737.96406021
  entropy T*S    EENTRO =        -0.00000000
  eigenvalues    EBANDS =     -2590.73087581
  atomic energy  EATOM  =     21122.79792691
  Solvation  Ediel_sol  =         0.00000000
  ---------------------------------------------------
  free energy    TOTEN  =      -257.76621598 eV

  energy without entropy =     -257.76621598  energy(sigma->0) =     -257.76621598


--------------------------------------------------------------------------------------------------------




--------------------------------------- Iteration      5(   4)  ---------------------------------------


    POTLOK:  cpu time    0.0640: real time    0.0676
    SETDIJ:  cpu time    0.0054: real time    0.0054
     EDDAV:  cpu time    1.6086: real time    1.6089
       DOS:  cpu time    0.0002: real time    0.0002
    CHARGE:  cpu time    0.1217: real time    0.1217
    MIXING:  cpu time    0.0019: real time    0.0019
    --------------------------------------------
      LOOP:  cpu time    1.8018: real time    1.8057

 eigenvalue-minimisations  :   540
 total energy-change (2. order) : 0.4090009E-04  (-0.1413395E-04)
 number of electron     335.9999975 magnetization 
 augmentation part      -21.1966532 magnetization 

 Broyden mixing:
  rms(total) = 0.10184E-02    rms(broyden)= 0.10184E-02
  rms(prec ) = 0.12344E-02
  weight for this iteration     100.00

 eigenvalues of (default mixing * dielectric matrix)
  average eigenvalue GAMMA=   1.5699
  2.7379  0.9860  0.9860

 Free energy of the ion-electron system (eV)
  ---------------------------------------------------
  alpha Z        PSCENC =       571.58137139
  Ewald energy   TEWEN  =    -15163.12147563
  -Hartree energ DENC   =     -5323.23805005
  -exchange      EXHF   =         0.00000000
  -V(xc)+E(xc)   XCENC  =       919.16343591
  PAW double counting   =     11943.84430075   -11738.10728305
  entropy T*S    EENTRO =        -0.00000000
  eigenvalues    EBANDS =     -2590.68640130
  atomic energy  EATOM  =     21122.79792691
  Solvation  Ediel_sol  =         0.00000000
  ---------------------------------------------------
  free energy    TOTEN  =      -257.76617508 eV

  energy without entropy =     -257.76617508  energy(sigma->0) =     -257.76617508


--------------------------------------------------------------------------------------------------------




--------------------------------------- Iteration      5(   5)  ---------------------------------------


    POTLOK:  cpu time    0.0645: real time    0.0680
    SETDIJ:  cpu time    0.0054: real time    0.0054
     EDDAV:  cpu time    1.7422: real time    1.7425
       DOS:  cpu time    0.0002: real time    0.0002
    CHARGE:  cpu time    0.1206: real time    0.1207
    MIXING:  cpu time    0.0019: real time    0.0019
    --------------------------------------------
      LOOP:  cpu time    1.9347: real time    1.9386

 eigenvalue-minimisations  :   600
 total energy-change (2. order) :-0.4084977E-05  (-0.4247188E-05)
 number of electron     335.9999975 magnetization 
 augmentation part      -21.1966684 magnetization 

 Broyden mixing:
  rms(total) = 0.89344E-03    rms(broyden)= 0.89344E-03
  rms(prec ) = 0.10515E-02
  weight for this iteration     100.00

 eigenvalues of (default mixing * dielectric matrix)
  average eigenvalue GAMMA=   1.6893
  3.2211  1.3525  1.3525  0.8309

 Free energy of the ion-electron system (eV)
  ---------------------------------------------------
  alpha Z        PSCENC =       571.58137139
  Ewald energy   TEWEN  =    -15163.12147563
  -Hartree energ DENC   =     -5323.24508701
  -exchange      EXHF   =         0.00000000
  -V(xc)+E(xc)   XCENC  =       919.16326386
  PAW double counting   =     11943.92235302   -11738.18502661
  entropy T*S    EENTRO =        -0.00000000
  eigenvalues    EBANDS =     -2590.67950509
  atomic energy  EATOM  =     21122.79792691
  Solvation  Ediel_sol  =         0.00000000
  ---------------------------------------------------
  free energy    TOTEN  =      -257.76617916 eV

  energy without entropy =     -257.76617916  energy(sigma->0) =     -257.76617916


--------------------------------------------------------------------------------------------------------




--------------------------------------- Iteration      5(   6)  ---------------------------------------


    POTLOK:  cpu time    0.0641: real time    0.0684
    SETDIJ:  cpu time    0.0054: real time    0.0054
     EDDAV:  cpu time    1.3443: real time    1.3445
       DOS:  cpu time    0.0008: real time    0.0008
    --------------------------------------------
      LOOP:  cpu time    1.4146: real time    1.4192

 eigenvalue-minimisations  :   420
 total energy-change (2. order) :-0.5207767E-07  (-0.2810270E-06)
 number of electron     335.9999975 magnetization 
 augmentation part      -21.1966684 magnetization 

 Free energy of the ion-electron system (eV)
  ---------------------------------------------------
  alpha Z        PSCENC =       571.58137139
  Ewald energy   TEWEN  =    -15163.12147563
  -Hartree energ DENC   =     -5323.23812701
  -exchange      EXHF   =         0.00000000
  -V(xc)+E(xc)   XCENC  =       919.16307444
  PAW double counting   =     11943.98652375   -11738.24943430
  entropy T*S    EENTRO =        -0.00000000
  eigenvalues    EBANDS =     -2590.68603877
  atomic energy  EATOM  =     21122.79792691
  Solvation  Ediel_sol  =         0.00000000
  ---------------------------------------------------
  free energy    TOTEN  =      -257.76617922 eV

  energy without entropy =     -257.76617922  energy(sigma->0) =     -257.76617922


--------------------------------------------------------------------------------------------------------




 average (electrostatic) potential at core
  the test charge radii are     0.9406  0.9748  1.1987
  (the norm of the test charge is              1.0000)
       1 -93.8866       2 -93.8867       3 -93.8866       4 -93.8876       5 -93.8876
       6 -93.8876       7 -93.4941       8 -93.4940       9 -93.4939      10 -93.5269
      11 -93.5269      12 -93.5268      13 -93.8201      14 -93.8201      15 -93.8200
      16 -93.5616      17 -93.5616      18 -93.5616      19 -93.9586      20 -93.9585
      21 -93.9586      22 -93.8749      23 -93.8749      24 -93.8748      25 -93.0193
      26 -93.0193      27 -93.0193      28 -93.5718      29 -93.5718      30 -93.5718
      31 -94.0266      32 -94.0267      33 -94.0267      34 -93.8367      35 -93.8368
      36 -93.8368      37 -28.5582      38 -28.5584      39 -28.5583      40 -28.4262
      41 -28.4262      42 -28.4262      43 -28.5446      44 -28.5446      45 -28.5446
      46 -28.5195      47 -28.5196      48 -28.5194      49 -28.5838      50 -28.5838
      51 -28.5837      52 -28.3752      53 -28.3750      54 -28.3752      55 -40.5079
      56 -40.9755      57 -40.6743      58 -41.0800      59 -40.8903      60 -40.8919
 
 
 
 E-fermi :   0.4040     XC(G=0):  -8.0425     alpha+bet : -8.1532


 k-point     1 :       0.0000    0.0000    0.0000
  band No.  band energies     occupation 
      1     -41.5319      2.00000
      2     -41.4279      2.00000
      3     -41.3536      2.00000
      4     -41.3476      2.00000
      5     -41.1260      2.00000
      6     -40.9678      2.00000
      7     -21.6765      2.00000
      8     -21.6310      2.00000
      9     -21.6310      2.00000
     10     -21.5421      2.00000
     11     -21.5271      2.00000
     12     -21.5271      2.00000
     13     -21.4709      2.00000
     14     -21.4708      2.00000
     15     -21.4610      2.00000
     16     -21.4610      2.00000
     17     -21.4569      2.00000
     18     -21.4461      2.00000
     19     -21.2321      2.00000
     20     -21.2301      2.00000
     21     -21.2301      2.00000
     22     -21.0872      2.00000
     23     -21.0872      2.00000
     24     -21.0786      2.00000
     25     -13.8406      2.00000
     26     -13.7029      2.00000
     27     -13.6295      2.00000
     28     -13.5329      2.00000
     29     -13.5329      2.00000
     30     -13.4774      2.00000
     31     -13.4774      2.00000
     32     -13.4721      2.00000
     33     -13.4509      2.00000
     34     -13.4508      2.00000
     35     -13.4244      2.00000
     36     -13.4243      2.00000
     37     -13.3746      2.00000
     38     -13.3746      2.00000
     39     -13.3634      2.00000
     40     -13.3511      2.00000
     41     -13.3358      2.00000
     42     -13.3357      2.00000
     43     -13.2719      2.00000
     44     -13.2644      2.00000
     45     -13.2644      2.00000
     46     -13.2342      2.00000
     47     -13.2180      2.00000
     48     -13.1384      2.00000
     49     -13.1384      2.00000
     50     -13.0658      2.00000
     51     -13.0657      2.00000
     52     -13.0317      2.00000
     53     -13.0316      2.00000
     54     -13.0012      2.00000
     55     -12.9426      2.00000
     56     -12.9425      2.00000
     57     -12.9282      2.00000
     58     -12.5982      2.00000
     59     -12.5902      2.00000
     60     -12.5902      2.00000
     61      -3.2608      2.00000
     62      -3.1581      2.00000
     63      -3.0382      2.00000
     64      -3.0382      2.00000
     65      -2.9377      2.00000
     66      -2.8981      2.00000
     67      -2.8981      2.00000
     68      -2.8914      2.00000
     69      -2.8202      2.00000
     70      -2.7994      2.00000
     71      -2.7993      2.00000
     72      -2.7632      2.00000
     73      -2.7632      2.00000
     74      -2.6970      2.00000
     75      -2.6969      2.00000
     76      -2.6895      2.00000
     77      -2.6691      2.00000
     78      -2.6691      2.00000
     79      -2.6345      2.00000
     80      -2.5742      2.00000
     81      -2.5742      2.00000
     82      -2.5318      2.00000
     83      -2.5318      2.00000
     84      -2.4903      2.00000
     85      -2.4903      2.00000
     86      -2.4293      2.00000
     87      -2.4098      2.00000
     88      -2.4098      2.00000
     89      -2.3567      2.00000
     90      -2.3337      2.00000
     91      -2.3321      2.00000
     92      -2.3321      2.00000
     93      -2.2891      2.00000
     94      -2.2458      2.00000
     95      -2.2085      2.00000
     96      -2.2085      2.00000
     97      -2.1785      2.00000
     98      -2.1242      2.00000
     99      -2.1242      2.00000
    100      -2.0718      2.00000
    101      -2.0165      2.00000
    102      -2.0165      2.00000
    103      -1.9304      2.00000
    104      -1.9132      2.00000
    105      -1.8996      2.00000
    106      -1.8996      2.00000
    107      -1.8932      2.00000
    108      -1.8581      2.00000
    109      -1.8581      2.00000
    110      -1.8169      2.00000
    111      -1.7545      2.00000
    112      -1.7545      2.00000
    113      -1.6972      2.00000
    114      -1.6972      2.00000
    115      -1.6806      2.00000
    116      -1.6355      2.00000
    117      -1.6354      2.00000
    118      -1.6245      2.00000
    119      -1.5529      2.00000
    120      -1.5176      2.00000
    121      -1.5176      2.00000
    122      -1.4765      2.00000
    123      -1.4765      2.00000
    124      -1.4572      2.00000
    125      -1.3750      2.00000
    126      -1.3557      2.00000
    127      -1.3557      2.00000
    128      -1.3430      2.00000
    129      -1.2777      2.00000
    130      -1.2685      2.00000
    131      -1.2684      2.00000
    132      -1.2391      2.00000
    133      -1.2391      2.00000
    134      -1.2013      2.00000
    135      -1.2013      2.00000
    136      -1.1546      2.00000
    137      -1.1349      2.00000
    138      -1.1348      2.00000
    139      -1.0900      2.00000
    140      -1.0545      2.00000
    141      -1.0545      2.00000
    142      -1.0302      2.00000
    143      -0.9858      2.00000
    144      -0.9858      2.00000
    145      -0.9699      2.00000
    146      -0.9315      2.00000
    147      -0.9315      2.00000
    148      -0.9050      2.00000
    149      -0.8871      2.00000
    150      -0.8871      2.00000
    151      -0.8483      2.00000
    152      -0.8188      2.00000
    153      -0.7926      2.00000
    154      -0.7926      2.00000
    155      -0.7360      2.00000
    156      -0.7360      2.00000
    157      -0.6804      2.00000
    158      -0.6771      2.00000
    159      -0.6771      2.00000
    160      -0.6505      2.00000
    161      -0.6171      2.00000
    162      -0.6171      2.00000
    163      -0.5830      2.00000
    164      -0.5528      2.00000
    165      -0.5527      2.00000
    166      -0.5505      2.00000
    167      -0.1898      2.00000
    168      -0.1897      2.00000
    169       3.9965      0.00000
    170       4.3145      0.00000
    171       4.3145      0.00000
    172       4.3820      0.00000
    173       4.3842      0.00000
    174       4.3842      0.00000
    175       4.4487      0.00000
    176       4.4487      0.00000
    177       4.5279      0.00000
    178       4.5279      0.00000
    179       4.5323      0.00000
    180       4.7426      0.00000
    181       4.7427      0.00000
    182       4.7794      0.00000
    183       4.8861      0.00000
    184       4.8861      0.00000
    185       4.9095      0.00000
    186       4.9781      0.00000
    187       5.4581      0.00000
    188       6.0009      0.00000
    189       6.0009      0.00000
    190       6.2407      0.00000
    191       6.2407      0.00000
    192       6.3727      0.00000
    193       6.3727      0.00000
    194       6.4261      0.00000
    195       6.4261      0.00000
    196       6.5168      0.00000
    197       6.5168      0.00000
    198       6.5994      0.00000
    199       6.6945      0.00000
    200       6.6946      0.00000
    201       6.7025      0.00000
    202       7.0539      0.00000
    203       7.1533      0.00000
    204       7.2507      0.00000
    205       7.2794      0.00000
    206       7.2794      0.00000
    207       7.3684      0.00000
    208       7.3684      0.00000
    209       7.4346      0.00000
    210       7.5131      0.00000
    211       7.5131      0.00000
    212       7.6076      0.00000
    213       7.6944      0.00000
    214       7.7303      0.00000
    215       7.7771      0.00000
    216       7.7771      0.00000
    217       7.9393      0.00000
    218       7.9393      0.00000
    219       8.0361      0.00000
    220       8.0362      0.00000
    221       8.0515      0.00000
    222       8.2099      0.00000
    223       8.2100      0.00000
    224       8.3361      0.00000
    225       8.3362      0.00000
    226       8.3869      0.00000
    227       8.4936      0.00000
    228       8.4936      0.00000
    229       8.6507      0.00000
    230       8.6730      0.00000
    231       8.6730      0.00000
    232       8.7694      0.00000
    233       8.8670      0.00000
    234       8.8670      0.00000
    235       9.0419      0.00000
    236       9.0420      0.00000
    237       9.0550      0.00000
    238       9.0956      0.00000
    239       9.2034      0.00000
    240       9.2035      0.00000


--------------------------------------------------------------------------------------------------------


 soft charge-density along one line, spin component           1
         0         1         2         3         4         5         6         7         8         9
 total charge-density along one line
 
 pseudopotential strength for first ion, spin component:           1
 47.851  -0.017   0.003   0.006  -0.007   0.000   0.000  -0.000
 -0.017   0.019   0.000   0.000  -0.000   0.000   0.000  -0.000
  0.003   0.000   9.156   0.001  -0.001  -0.001  -0.000   0.000
  0.006   0.000   0.001   9.156  -0.002  -0.000  -0.001   0.000
 -0.007  -0.000  -0.001  -0.002   9.157   0.000   0.000  -0.001
  0.000   0.000  -0.001  -0.000   0.000   0.035   0.000  -0.000
  0.000   0.000  -0.000  -0.001   0.000   0.000   0.035  -0.000
 -0.000  -0.000   0.000   0.000  -0.001  -0.000  -0.000   0.035
 total augmentation occupancy for first ion, spin component:           1
  1.919   0.384  -0.013  -0.028   0.030  -0.015  -0.030   0.036
  0.384   0.317   0.072   0.154  -0.171  -0.029  -0.070   0.059
 -0.013   0.072   1.763  -0.014   0.009  -0.360  -0.034   0.024
 -0.028   0.154  -0.014   1.770   0.024  -0.034  -0.347   0.047
  0.030  -0.171   0.009   0.024   1.754   0.024   0.047  -0.381
 -0.015  -0.029  -0.360  -0.034   0.024   0.105   0.021  -0.016
 -0.030  -0.070  -0.034  -0.347   0.047   0.021   0.101  -0.031
  0.036   0.059   0.024   0.047  -0.381  -0.016  -0.031   0.118


------------------------ aborting loop because EDIFF is reached ----------------------------------------


 


 total charge     
 
# of ion       s       p       d       tot
------------------------------------------
    1        1.593   3.573   0.000   5.166
    2        1.593   3.573   0.000   5.166
    3        1.593   3.573   0.000   5.166
    4        1.592   3.579   0.000   5.171
    5        1.592   3.579   0.000   5.171
    6        1.592   3.579   0.000   5.171
    7        1.591   3.588   0.000   5.179
    8        1.591   3.588   0.000   5.179
    9        1.591   3.588   0.000   5.179
   10        1.593   3.576   0.000   5.168
   11        1.593   3.576   0.000   5.168
   12        1.593   3.576   0.000   5.168
   13        1.593   3.585   0.000   5.178
   14        1.593   3.585   0.000   5.178
   15        1.593   3.585   0.000   5.178
   16        1.590   3.588   0.000   5.178
   17        1.590   3.588   0.000   5.178
   18        1.590   3.588   0.000   5.178
   19        1.592   3.577   0.000   5.169
   20        1.592   3.577   0.000   5.169
   21        1.592   3.577   0.000   5.169
   22        1.593   3.579   0.000   5.172
   23        1.593   3.579   0.000   5.172
   24        1.593   3.579   0.000   5.172
   25        1.588   3.588   0.000   5.176
   26        1.588   3.588   0.000   5.176
   27        1.588   3.588   0.000   5.176
   28        1.590   3.588   0.000   5.179
   29        1.590   3.588   0.000   5.179
   30        1.590   3.588   0.000   5.179
   31        1.596   3.565   0.000   5.161
   32        1.596   3.565   0.000   5.161
   33        1.596   3.565   0.000   5.161
   34        1.593   3.577   0.000   5.170
   35        1.593   3.577   0.000   5.170
   36        1.593   3.577   0.000   5.170
   37        0.056   0.102   0.000   0.158
   38        0.056   0.102   0.000   0.158
   39        0.056   0.102   0.000   0.158
   40        0.060   0.110   0.000   0.170
   41        0.060   0.110   0.000   0.170
   42        0.060   0.110   0.000   0.170
   43        0.057   0.102   0.000   0.158
   44        0.057   0.102   0.000   0.158
   45        0.057   0.102   0.000   0.158
   46        0.057   0.104   0.000   0.160
   47        0.057   0.104   0.000   0.160
   48        0.057   0.104   0.000   0.160
   49        0.060   0.106   0.000   0.166
   50        0.060   0.106   0.000   0.166
   51        0.060   0.106   0.000   0.166
   52        0.059   0.109   0.000   0.168
   53        0.059   0.109   0.000   0.168
   54        0.059   0.109   0.000   0.168
   55        2.123   6.130   0.692   8.945
   56        2.121   6.125   0.678   8.924
   57        2.120   6.124   0.677   8.922
   58        2.120   6.119   0.685   8.924
   59        2.122   6.129   0.686   8.937
   60        2.123   6.127   0.702   8.952
--------------------------------------------------
tot         71.080 167.541   4.121 242.743
 
    CHARGE:  cpu time    0.1191: real time    0.1191
    FORLOC:  cpu time    0.0222: real time    0.0222
    FORNL :  cpu time    0.4813: real time    0.4815
    STRESS:  cpu time    1.4871: real time    1.4871
    FORCOR:  cpu time    0.0741: real time    0.0742
    FORHAR:  cpu time    0.0331: real time    0.0331
    MIXING:  cpu time    0.0037: real time    0.0038
    OFIELD:  cpu time    0.0000: real time    0.0000

  FORCE on cell =-STRESS in cart. coord.  units (eV):
  Direction    XX          YY          ZZ          XY          YZ          ZX
  --------------------------------------------------------------------------------------
  Alpha Z   571.58137   571.58137   571.58137
  Ewald   -4924.40909 -4924.41179 -5314.37680    -0.00221    -0.00165    -0.00060
  Hartree  1854.68734  1854.68828  1613.85963     0.00064    -0.00006     0.00034
  E(xc)   -1246.33163 -1246.33158 -1246.99999     0.00002    -0.00002     0.00002
  Local   -3363.72822 -3363.73135 -2729.51086    -0.00099     0.00316    -0.00152
  n-local  2684.65724  2684.65642  2686.67746    -0.00034     0.00044    -0.00028
  augment  -619.16041  -619.16100  -619.66051    -0.00052     0.00012    -0.00006
  Kinetic  5045.43185  5045.43231  5038.71753     0.00023    -0.00017     0.00030
  Fock        0.00000     0.00000     0.00000     0.00000     0.00000     0.00000
  -------------------------------------------------------------------------------------
  Total       2.72555     2.72556     0.28785     0.00000    -0.00000     0.00000
  in kB       3.16528     3.16529     0.33429     0.00000    -0.00000     0.00000
  external pressure =        2.22 kB  Pullay stress =        0.00 kB


 VOLUME and BASIS-vectors are now :
 -----------------------------------------------------------------------------
  energy-cutoff  :      520.00
  volume of cell :     1379.60
      direct lattice vectors                 reciprocal lattice vectors
    11.334128968  0.000003780  0.000002558     0.088229083  0.050939039 -0.000000003
    -5.667061570  9.815647364 -0.000003655    -0.000000034  0.101878131  0.000000024
     0.000002030 -0.000002865 12.400680362    -0.000000018  0.000000020  0.080640737

  length of vectors
    11.334128968 11.334130757 12.400680362     0.101878147  0.101878131  0.080640737


 FORCES acting on ions
    electron-ion (+dipol)            ewald-force                    non-local-force                 convergence-correction
 -----------------------------------------------------------------------------------------------
   -.816E+02 0.464E+02 0.494E+02   0.820E+02 -.465E+02 -.498E+02   -.388E+00 0.110E+00 0.359E+00   0.918E-03 -.600E-03 0.113E-02
   0.576E+00 -.939E+02 0.494E+02   -.671E+00 0.943E+02 -.498E+02   0.988E-01 -.391E+00 0.359E+00   0.610E-04 0.110E-02 0.113E-02
   0.810E+02 0.474E+02 0.494E+02   -.813E+02 -.477E+02 -.498E+02   0.289E+00 0.281E+00 0.359E+00   -.979E-03 -.496E-03 0.113E-02
   0.666E+02 -.277E+02 -.703E+02   -.672E+02 0.275E+02 0.707E+02   0.653E+00 0.135E+00 -.401E+00   -.215E-03 0.494E-03 -.164E-02
   -.572E+02 -.438E+02 -.703E+02   0.575E+02 0.445E+02 0.707E+02   -.209E+00 -.633E+00 -.401E+00   0.535E-03 -.602E-04 -.164E-02
   -.933E+01 0.715E+02 -.703E+02   0.977E+01 -.720E+02 0.707E+02   -.444E+00 0.498E+00 -.401E+00   -.320E-03 -.434E-03 -.164E-02
   -.537E+02 0.350E+02 0.814E+02   0.539E+02 -.355E+02 -.818E+02   -.238E+00 0.494E+00 0.376E+00   -.746E-03 -.204E-03 0.157E-02
   -.349E+01 -.640E+02 0.814E+02   0.379E+01 0.645E+02 -.818E+02   -.308E+00 -.453E+00 0.376E+00   0.549E-03 -.544E-03 0.157E-02
   0.572E+02 0.290E+02 0.814E+02   -.577E+02 -.290E+02 -.818E+02   0.547E+00 -.406E-01 0.376E+00   0.196E-03 0.748E-03 0.157E-02
   0.540E+02 -.455E+02 -.499E+02   -.541E+02 0.460E+02 0.504E+02   0.120E+00 -.515E+00 -.422E+00   -.850E-03 -.433E-03 -.519E-03
   -.664E+02 -.240E+02 -.499E+02   0.669E+02 0.239E+02 0.504E+02   -.506E+00 0.154E+00 -.422E+00   0.501E-04 0.953E-03 -.520E-03
   0.124E+02 0.695E+02 -.499E+02   -.128E+02 -.699E+02 0.504E+02   0.387E+00 0.361E+00 -.422E+00   0.800E-03 -.519E-03 -.519E-03
   0.625E+02 -.469E+02 -.749E+02   -.630E+02 0.471E+02 0.747E+02   0.462E+00 -.271E+00 0.231E+00   -.181E-02 0.751E-03 0.480E-03
   0.932E+01 0.776E+02 -.750E+02   -.932E+01 -.781E+02 0.747E+02   0.310E-02 0.536E+00 0.231E+00   0.253E-03 -.194E-02 0.480E-03
   -.719E+02 -.307E+02 -.749E+02   0.723E+02 0.310E+02 0.747E+02   -.465E+00 -.265E+00 0.231E+00   0.155E-02 0.119E-02 0.480E-03
   -.659E+02 0.302E+02 -.559E+02   0.661E+02 -.299E+02 0.565E+02   -.277E+00 -.304E+00 -.553E+00   0.777E-03 -.570E-04 -.139E-02
   0.591E+02 0.419E+02 -.559E+02   -.590E+02 -.423E+02 0.565E+02   -.125E+00 0.392E+00 -.553E+00   -.438E-03 -.644E-03 -.139E-02
   0.679E+01 -.721E+02 -.559E+02   -.720E+01 0.722E+02 0.565E+02   0.402E+00 -.875E-01 -.553E+00   -.339E-03 0.701E-03 -.139E-02
   0.655E+02 -.342E+02 0.698E+02   -.658E+02 0.344E+02 -.699E+02   0.330E+00 -.210E+00 0.115E+00   -.875E-03 0.924E-03 -.515E-03
   -.316E+01 0.738E+02 0.698E+02   0.315E+01 -.742E+02 -.699E+02   0.167E-01 0.391E+00 0.115E+00   -.362E-03 -.122E-02 -.515E-03
   -.623E+02 -.396E+02 0.698E+02   0.627E+02 0.398E+02 -.699E+02   -.347E+00 -.181E+00 0.115E+00   0.124E-02 0.297E-03 -.515E-03
   -.641E+02 0.359E+02 -.712E+02   0.643E+02 -.362E+02 0.717E+02   -.164E+00 0.369E+00 -.549E+00   0.133E-02 -.614E-03 -.184E-02
   0.631E+02 0.376E+02 -.712E+02   -.635E+02 -.375E+02 0.717E+02   0.402E+00 -.425E-01 -.549E+00   -.120E-02 -.847E-03 -.184E-02
   0.986E+00 -.734E+02 -.712E+02   -.748E+00 0.738E+02 0.717E+02   -.238E+00 -.327E+00 -.549E+00   -.133E-03 0.146E-02 -.184E-02
   0.537E+02 -.320E+02 -.187E+02   -.548E+02 0.326E+02 0.186E+02   0.114E+01 -.648E+00 0.589E-01   0.846E-03 -.693E-03 -.897E-04
   0.843E+00 0.625E+02 -.187E+02   -.832E+00 -.638E+02 0.186E+02   -.910E-02 0.131E+01 0.589E-01   0.178E-03 0.108E-02 -.897E-04
   -.545E+02 -.305E+02 -.187E+02   0.556E+02 0.312E+02 0.186E+02   -.113E+01 -.664E+00 0.589E-01   -.102E-02 -.387E-03 -.897E-04
   0.692E+02 -.296E+02 0.530E+02   -.696E+02 0.297E+02 -.529E+02   0.369E+00 -.139E+00 -.137E+00   -.623E-03 0.438E-03 0.749E-03
   -.602E+02 -.452E+02 0.530E+02   0.605E+02 0.454E+02 -.529E+02   -.304E+00 -.250E+00 -.137E+00   0.691E-03 0.321E-03 0.749E-03
   -.903E+01 0.748E+02 0.530E+02   0.910E+01 -.751E+02 -.529E+02   -.642E-01 0.389E+00 -.137E+00   -.681E-04 -.759E-03 0.749E-03
   -.149E+03 0.868E+02 0.938E+01   0.150E+03 -.872E+02 -.947E+01   -.138E+01 0.429E+00 0.832E-01   -.104E-02 0.198E-03 0.461E-03
   -.770E+00 -.172E+03 0.938E+01   0.456E+00 0.174E+03 -.946E+01   0.321E+00 -.141E+01 0.832E-01   0.346E-03 -.999E-03 0.461E-03
   0.150E+03 0.854E+02 0.938E+01   -.151E+03 -.864E+02 -.947E+01   0.106E+01 0.984E+00 0.832E-01   0.692E-03 0.800E-03 0.461E-03
   0.570E+02 -.417E+02 0.749E+02   -.570E+02 0.422E+02 -.758E+02   0.597E-01 -.446E+00 0.826E+00   -.821E-03 -.755E-04 0.193E-02
   -.646E+02 -.285E+02 0.749E+02   0.650E+02 0.283E+02 -.758E+02   -.416E+00 0.171E+00 0.826E+00   0.346E-03 0.749E-03 0.193E-02
   0.764E+01 0.702E+02 0.749E+02   -.800E+01 -.705E+02 -.758E+02   0.356E+00 0.275E+00 0.826E+00   0.476E-03 -.674E-03 0.193E-02
   0.663E+01 -.137E+01 0.119E+01   -.605E+01 0.174E+01 -.144E+01   -.578E+00 -.367E+00 0.247E+00   0.519E-04 -.410E-04 0.474E-04
   -.213E+01 0.643E+01 0.119E+01   0.152E+01 -.611E+01 -.144E+01   0.607E+00 -.318E+00 0.247E+00   0.960E-05 0.654E-04 0.474E-04
   -.450E+01 -.506E+01 0.119E+01   0.453E+01 0.437E+01 -.144E+01   -.285E-01 0.684E+00 0.247E+00   -.615E-04 -.244E-04 0.474E-04
   0.427E+00 0.332E+01 -.373E+00   0.231E+00 -.328E+01 0.232E+00   -.662E+00 -.381E-01 0.144E+00   -.427E-04 -.176E-04 -.330E-04
   -.309E+01 -.129E+01 -.373E+00   0.272E+01 0.184E+01 0.232E+00   0.364E+00 -.554E+00 0.144E+00   0.366E-04 -.282E-04 -.329E-04
   0.266E+01 -.203E+01 -.373E+00   -.296E+01 0.144E+01 0.232E+00   0.298E+00 0.592E+00 0.144E+00   0.616E-05 0.458E-04 -.329E-04
   0.714E-01 0.148E+01 0.506E+00   -.631E+00 -.160E+01 -.510E+00   0.565E+00 0.122E+00 0.762E-02   0.373E-04 -.973E-05 -.389E-04
   -.132E+01 -.679E+00 0.506E+00   0.170E+01 0.255E+00 -.510E+00   -.388E+00 0.428E+00 0.762E-02   -.102E-04 0.371E-04 -.389E-04
   0.125E+01 -.803E+00 0.506E+00   -.107E+01 0.135E+01 -.510E+00   -.176E+00 -.550E+00 0.762E-02   -.271E-04 -.274E-04 -.389E-04
   0.472E+01 0.485E+01 -.117E+01   -.421E+01 -.496E+01 0.121E+01   -.511E+00 0.115E+00 -.415E-01   -.230E-04 0.254E-04 0.183E-04
   -.656E+01 0.167E+01 -.117E+01   0.640E+01 -.116E+01 0.121E+01   0.156E+00 -.499E+00 -.415E-01   -.105E-04 -.326E-04 0.183E-04
   0.184E+01 -.651E+01 -.117E+01   -.219E+01 0.612E+01 0.121E+01   0.354E+00 0.385E+00 -.415E-01   0.335E-04 0.721E-05 0.183E-04
   -.356E+00 0.738E+00 0.177E+01   -.345E-01 -.518E+00 -.141E+01   0.387E+00 -.229E+00 -.360E+00   -.117E-04 -.473E-05 -.555E-05
   -.461E+00 -.677E+00 0.177E+01   0.465E+00 0.229E+00 -.141E+01   0.523E-02 0.449E+00 -.360E+00   0.993E-05 -.776E-05 -.558E-05
   0.817E+00 -.609E-01 0.177E+01   -.431E+00 0.289E+00 -.141E+01   -.392E+00 -.220E+00 -.360E+00   0.176E-05 0.125E-04 -.556E-05
   -.287E+01 0.458E+01 -.250E+01   0.249E+01 -.470E+01 0.264E+01   0.387E+00 0.115E+00 -.150E+00   0.227E-04 0.227E-04 -.323E-05
   -.253E+01 -.478E+01 -.250E+01   0.282E+01 0.450E+01 0.264E+01   -.293E+00 0.278E+00 -.150E+00   -.310E-04 0.836E-05 -.323E-05
   0.540E+01 0.198E+00 -.250E+01   -.531E+01 0.191E+00 0.264E+01   -.939E-01 -.392E+00 -.150E+00   0.827E-05 -.310E-04 -.322E-05
   -.145E-02 -.686E-03 -.924E+01   -.198E-03 -.265E-03 0.854E+01   0.117E-06 -.165E-06 0.712E+00   0.122E-06 0.799E-07 -.254E-03
   0.611E-03 -.106E-02 0.167E-01   0.294E-03 -.381E-03 0.423E+00   -.731E-07 0.103E-06 -.446E+00   0.278E-07 -.141E-07 0.227E-03
   -.185E-03 -.753E-03 -.142E+01   -.348E-03 0.536E-04 0.158E+01   -.291E-07 0.411E-07 -.178E+00   0.107E-06 0.197E-06 -.247E-03
   0.736E-03 -.144E-02 0.132E+03   0.409E-03 -.324E-03 -.132E+03   -.271E-07 0.382E-07 -.165E+00   0.970E-07 0.588E-07 0.287E-05
   -.376E-03 0.177E-02 -.114E+01   -.397E-03 0.517E-03 0.923E+00   0.372E-07 -.524E-07 0.227E+00   0.168E-07 -.351E-07 -.678E-03
   -.149E-02 -.252E-03 -.109E+03   0.544E-03 -.614E-04 0.109E+03   -.367E-07 0.518E-07 -.224E+00   0.207E-08 0.211E-06 -.117E-02
 -----------------------------------------------------------------------------------------------
   0.714E-02 -.126E-01 0.571E+00   -.205E-13 -.140E-12 -.171E-12   -.935E-07 0.132E-06 -.571E+00   0.443E-06 0.128E-05 -.121E-02
 
 
 POSITION                                       TOTAL-FORCE (eV/Angst)
 -----------------------------------------------------------------------------------
     -3.66063      8.65373      4.72733         0.010918     -0.009829     -0.002294
      0.00304      2.31858      4.72734         0.003053      0.014370     -0.002294
      3.65760      8.65899      4.72734        -0.013971     -0.004541     -0.002294
      9.40195      1.13483      7.46796        -0.010283      0.010892      0.006051
      1.94888      1.10591      7.46796         0.014574      0.003460      0.006051
      5.65037      7.57492      7.46796        -0.004291     -0.014352      0.006051
     -3.94101      8.57894     10.95093         0.007619     -0.002829     -0.013589
      0.20800      2.11315     10.95093        -0.001360      0.008013     -0.013589
      3.73303      8.93921     10.95093        -0.006259     -0.005184     -0.013589
      9.32713      1.05021      1.51832        -0.006395      0.002922      0.002376
      1.91301      1.21302      1.51832         0.005728      0.004077      0.002376
      5.76107      7.55243      1.51831         0.000667     -0.006999      0.002376
     -1.98604      7.66284      1.70775         0.002987      0.002186      0.000918
      0.02387      4.26426      1.70776        -0.003387      0.001494      0.000918
      1.96218      7.70419      1.70776         0.000400     -0.003680      0.000918
      7.65954      2.33759     10.66569         0.007097     -0.004574      0.007766
      3.86171      2.01351     10.66570        -0.007510     -0.003859      0.007766
      5.47996      5.46456     10.66569         0.000413      0.008433      0.007766
     -1.89937      7.83484      7.89006        -0.003322      0.002591      0.006593
     -0.16842      4.25332      7.89006        -0.000583     -0.004172      0.006593
      2.06780      7.54314      7.89006         0.003904      0.001581      0.006593
      7.66045      2.22041      4.40593         0.011806     -0.002342      0.000174
      3.75977      2.07130      4.40593        -0.007931     -0.009053      0.000174
      5.58098      5.52394      4.40593        -0.003874      0.011395      0.000174
      2.08901      5.26929      4.71079        -0.000855     -0.002330      0.001832
      0.05923      8.99013      4.71078         0.002445      0.000424      0.001832
     -2.14823      5.37187      4.71078        -0.001590      0.001905      0.001832
      3.75774      4.38391      7.71071        -0.007867      0.000878     -0.003529
      7.58477      4.36940      7.71070         0.004694      0.006374     -0.003529
      5.65869      1.06234      7.71072         0.003173     -0.007252     -0.003529
      1.68967      5.49483     11.00524         0.014907     -0.015839      0.002526
      0.06358      8.53153     11.00524         0.006264      0.020829      0.002526
     -1.75324      5.60495     11.00524        -0.021171     -0.004990      0.002526
      3.67272      4.29232      1.56983        -0.010464      0.003174     -0.011171
      7.54796      4.48882      1.56983         0.007981      0.007475     -0.011171
      5.78051      1.03451      1.56983         0.002483     -0.010649     -0.011171
      7.67286      0.41639     12.13860         0.001456      0.002299     -0.004226
      7.13711      6.43670     12.13860        -0.002719      0.000112     -0.004226
      2.19125      2.96256     12.13861         0.001263     -0.002410     -0.004226
      4.04266      0.11998      6.13545        -0.003074      0.005847      0.002860
      9.20890      3.44106      6.13544        -0.003526     -0.005586      0.002860
      3.74964      6.25462      6.13545         0.006601     -0.000261      0.002860
      1.66195      9.60197      6.43876         0.005167      0.001374      0.003240
     -3.47945      6.45395      6.43875        -0.003774      0.003788      0.003240
      1.81751      3.57538      6.43876        -0.001393     -0.005162      0.003240
     -1.61838      9.72417      3.00544         0.003129     -0.001094     -0.001464
     -1.94512      3.55199      3.00544        -0.000617      0.003257     -0.001464
      3.56350      6.35512      3.00544        -0.002512     -0.002163     -0.001464
      3.02361      0.09837      9.47198        -0.003855     -0.008449     -0.002206
      9.73715      2.56934      9.47198         0.009245      0.000886     -0.002206
      4.24045      7.14794      9.47198        -0.005390      0.007563     -0.002206
      1.81963      9.75480      3.17858         0.003499      0.000281     -0.001404
     -3.69065      6.51409      3.17858        -0.001992      0.002890     -0.001404
      1.87102      3.36240      3.17859        -0.001506     -0.003170     -0.001404
      0.00000      0.00000      0.14483         0.000000     -0.000000      0.008542
      0.00000      0.00000      6.02571        -0.000000      0.000000     -0.006289
      5.66707      3.27188      9.18839        -0.000000      0.000000     -0.016819
      0.00000      6.54377      9.14337        -0.000000      0.000000     -0.006481
      5.66707      3.27188      2.98544         0.000000     -0.000000      0.005089
      0.00000      6.54377      0.47411         0.000000     -0.000000      0.032600
 -----------------------------------------------------------------------------------
    total drift:                                0.007135     -0.012604     -0.001111


--------------------------------------------------------------------------------------------------------



  FREE ENERGIE OF THE ION-ELECTRON SYSTEM (eV)
  ---------------------------------------------------
  free  energy   TOTEN  =      -257.76617922 eV

  energy  without entropy=     -257.76617922  energy(sigma->0) =     -257.76617922
 
 d Force = 0.3353119E-03[-0.843E-04, 0.755E-03]  d Energy = 0.3643830E-03-0.291E-04
 d Force =-0.3010341E+01[-0.302E+01,-0.300E+01]  d Ewald  =-0.3010343E+01 0.231E-05


--------------------------------------------------------------------------------------------------------


    POTLOK:  cpu time    0.0706: real time    0.0707


--------------------------------------------------------------------------------------------------------




--------------------------------------------------------------------------------------------------------


    WAVPRE:  cpu time    0.0316: real time    0.0338
    FEWALD:  cpu time    0.0013: real time    0.0013
    ORTHCH:  cpu time    0.2371: real time    0.2372
     LOOP+:  cpu time   13.5553: real time   13.5842


--------------------------------------- Iteration      6(   1)  ---------------------------------------


    POTLOK:  cpu time    0.0667: real time    0.0688
    SETDIJ:  cpu time    0.0054: real time    0.0054
     EDDAV:  cpu time    1.4462: real time    1.4468
       DOS:  cpu time    0.0009: real time    0.0009
    CHARGE:  cpu time    0.1226: real time    0.1226
    MIXING:  cpu time    0.0029: real time    0.0029
    --------------------------------------------
      LOOP:  cpu time    1.6448: real time    1.6474

 eigenvalue-minimisations  :   480
 total energy-change (2. order) :-0.8175011E-05  (-0.1164094E-01)
 number of electron     335.9999974 magnetization 
 augmentation part      -21.1968150 magnetization 

 Broyden mixing:
  rms(total) = 0.58515E-02    rms(broyden)= 0.58507E-02
  rms(prec ) = 0.69056E-02
  weight for this iteration     100.00

 Free energy of the ion-electron system (eV)
  ---------------------------------------------------
  alpha Z        PSCENC =       571.58137139
  Ewald energy   TEWEN  =    -15165.03067647
  -Hartree energ DENC   =     -5321.42411022
  -exchange      EXHF   =         0.00000000
  -V(xc)+E(xc)   XCENC  =       919.14951979
  PAW double counting   =     11944.06258419   -11738.32561215
  entropy T*S    EENTRO =        -0.00000000
  eigenvalues    EBANDS =     -2590.57719077
  atomic energy  EATOM  =     21122.79792691
  Solvation  Ediel_sol  =         0.00000000
  ---------------------------------------------------
  free energy    TOTEN  =      -257.76618734 eV

  energy without entropy =     -257.76618734  energy(sigma->0) =     -257.76618734


--------------------------------------------------------------------------------------------------------




--------------------------------------- Iteration      6(   2)  ---------------------------------------


    POTLOK:  cpu time    0.0658: real time    0.0689
    SETDIJ:  cpu time    0.0058: real time    0.0058
     EDDAV:  cpu time    1.7439: real time    1.7442
       DOS:  cpu time    0.0003: real time    0.0003
    CHARGE:  cpu time    0.1222: real time    0.1222
    MIXING:  cpu time    0.0022: real time    0.0022
    --------------------------------------------
      LOOP:  cpu time    1.9401: real time    1.9436

 eigenvalue-minimisations  :   600
 total energy-change (2. order) :-0.4599676E-03  (-0.5104991E-03)
 number of electron     335.9999974 magnetization 
 augmentation part      -21.1957683 magnetization 

 Broyden mixing:
  rms(total) = 0.19049E-02    rms(broyden)= 0.19021E-02
  rms(prec ) = 0.27754E-02
  weight for this iteration     100.00

 eigenvalues of (default mixing * dielectric matrix)
  average eigenvalue GAMMA=   0.8799
  0.8799

 Free energy of the ion-electron system (eV)
  ---------------------------------------------------
  alpha Z        PSCENC =       571.58137139
  Ewald energy   TEWEN  =    -15165.03067647
  -Hartree energ DENC   =     -5321.32560971
  -exchange      EXHF   =         0.00000000
  -V(xc)+E(xc)   XCENC  =       919.14819205
  PAW double counting   =     11943.85285234   -11738.11718911
  entropy T*S    EENTRO =        -0.00000000
  eigenvalues    EBANDS =     -2590.67351472
  atomic energy  EATOM  =     21122.79792691
  Solvation  Ediel_sol  =         0.00000000
  ---------------------------------------------------
  free energy    TOTEN  =      -257.76664731 eV

  energy without entropy =     -257.76664731  energy(sigma->0) =     -257.76664731


--------------------------------------------------------------------------------------------------------




--------------------------------------- Iteration      6(   3)  ---------------------------------------


    POTLOK:  cpu time    0.0652: real time    0.0688
    SETDIJ:  cpu time    0.0055: real time    0.0055
     EDDAV:  cpu time    2.1846: real time    2.1849
       DOS:  cpu time    0.0002: real time    0.0002
    CHARGE:  cpu time    0.1223: real time    0.1223
    MIXING:  cpu time    0.0017: real time    0.0017
    --------------------------------------------
      LOOP:  cpu time    2.3794: real time    2.3834

 eigenvalue-minimisations  :   780
 total energy-change (2. order) : 0.9571257E-05  (-0.7470100E-05)
 number of electron     335.9999974 magnetization 
 augmentation part      -21.1952008 magnetization 

 Broyden mixing:
  rms(total) = 0.15431E-02    rms(broyden)= 0.15430E-02
  rms(prec ) = 0.21370E-02
  weight for this iteration     100.00

 eigenvalues of (default mixing * dielectric matrix)
  average eigenvalue GAMMA=   1.5249
  1.1040  1.9457

 Free energy of the ion-electron system (eV)
  ---------------------------------------------------
  alpha Z        PSCENC =       571.58137139
  Ewald energy   TEWEN  =    -15165.03067647
  -Hartree energ DENC   =     -5321.26628247
  -exchange      EXHF   =         0.00000000
  -V(xc)+E(xc)   XCENC  =       919.14712857
  PAW double counting   =     11943.69557548   -11737.96469658
  entropy T*S    EENTRO =        -0.00000000
  eigenvalues    EBANDS =     -2590.72698458
  atomic energy  EATOM  =     21122.79792691
  Solvation  Ediel_sol  =         0.00000000
  ---------------------------------------------------
  free energy    TOTEN  =      -257.76663774 eV

  energy without entropy =     -257.76663774  energy(sigma->0) =     -257.76663774


--------------------------------------------------------------------------------------------------------




--------------------------------------- Iteration      6(   4)  ---------------------------------------


    POTLOK:  cpu time    0.0660: real time    0.0694
    SETDIJ:  cpu time    0.0055: real time    0.0055
     EDDAV:  cpu time    1.7613: real time    1.7616
       DOS:  cpu time    0.0008: real time    0.0008
    CHARGE:  cpu time    0.1220: real time    0.1220
    MIXING:  cpu time    0.0035: real time    0.0035
    --------------------------------------------
      LOOP:  cpu time    1.9590: real time    1.9628

 eigenvalue-minimisations  :   600
 total energy-change (2. order) : 0.1245258E-04  (-0.4467785E-05)
 number of electron     335.9999974 magnetization 
 augmentation part      -21.1951312 magnetization 

 Broyden mixing:
  rms(total) = 0.59734E-03    rms(broyden)= 0.59734E-03
  rms(prec ) = 0.70694E-03
  weight for this iteration     100.00

 eigenvalues of (default mixing * dielectric matrix)
  average eigenvalue GAMMA=   1.5183
  2.5275  1.0137  1.0137

 Free energy of the ion-electron system (eV)
  ---------------------------------------------------
  alpha Z        PSCENC =       571.58137139
  Ewald energy   TEWEN  =    -15165.03067647
  -Hartree energ DENC   =     -5321.18644389
  -exchange      EXHF   =         0.00000000
  -V(xc)+E(xc)   XCENC  =       919.14530917
  PAW double counting   =     11943.41429891   -11737.69381939
  entropy T*S    EENTRO =        -0.00000000
  eigenvalues    EBANDS =     -2590.79459191
  atomic energy  EATOM  =     21122.79792691
  Solvation  Ediel_sol  =         0.00000000
  ---------------------------------------------------
  free energy    TOTEN  =      -257.76662528 eV

  energy without entropy =     -257.76662528  energy(sigma->0) =     -257.76662528


--------------------------------------------------------------------------------------------------------




--------------------------------------- Iteration      6(   5)  ---------------------------------------


    POTLOK:  cpu time    0.0656: real time    0.0692
    SETDIJ:  cpu time    0.0055: real time    0.0055
     EDDAV:  cpu time    1.3365: real time    1.3367
       DOS:  cpu time    0.0002: real time    0.0002
    CHARGE:  cpu time    0.1216: real time    0.1216
    MIXING:  cpu time    0.0020: real time    0.0020
    --------------------------------------------
      LOOP:  cpu time    1.5315: real time    1.5353

 eigenvalue-minimisations  :   420
 total energy-change (2. order) :-0.4753856E-06  (-0.8679880E-06)
 number of electron     335.9999974 magnetization 
 augmentation part      -21.1952661 magnetization 

 Broyden mixing:
  rms(total) = 0.48276E-03    rms(broyden)= 0.48276E-03
  rms(prec ) = 0.55756E-03
  weight for this iteration     100.00

 eigenvalues of (default mixing * dielectric matrix)
  average eigenvalue GAMMA=   1.7964
  3.5154  0.8526  1.4087  1.4087

 Free energy of the ion-electron system (eV)
  ---------------------------------------------------
  alpha Z        PSCENC =       571.58137139
  Ewald energy   TEWEN  =    -15165.03067647
  -Hartree energ DENC   =     -5321.18851628
  -exchange      EXHF   =         0.00000000
  -V(xc)+E(xc)   XCENC  =       919.14504399
  PAW double counting   =     11943.34503428   -11737.62666620
  entropy T*S    EENTRO =        -0.00000000
  eigenvalues    EBANDS =     -2590.79014338
  atomic energy  EATOM  =     21122.79792691
  Solvation  Ediel_sol  =         0.00000000
  ---------------------------------------------------
  free energy    TOTEN  =      -257.76662576 eV

  energy without entropy =     -257.76662576  energy(sigma->0) =     -257.76662576


--------------------------------------------------------------------------------------------------------




--------------------------------------- Iteration      6(   6)  ---------------------------------------


    POTLOK:  cpu time    0.0639: real time    0.0674
    SETDIJ:  cpu time    0.0054: real time    0.0054
     EDDAV:  cpu time    1.3361: real time    1.3363
       DOS:  cpu time    0.0002: real time    0.0001
    --------------------------------------------
      LOOP:  cpu time    1.4055: real time    1.4093

 eigenvalue-minimisations  :   420
 total energy-change (2. order) : 0.2642155E-06  (-0.1237772E-06)
 number of electron     335.9999974 magnetization 
 augmentation part      -21.1952661 magnetization 

 Free energy of the ion-electron system (eV)
  ---------------------------------------------------
  alpha Z        PSCENC =       571.58137139
  Ewald energy   TEWEN  =    -15165.03067647
  -Hartree energ DENC   =     -5321.18873727
  -exchange      EXHF   =         0.00000000
  -V(xc)+E(xc)   XCENC  =       919.14470999
  PAW double counting   =     11943.22099889   -11737.50576309
  entropy T*S    EENTRO =        -0.00000000
  eigenvalues    EBANDS =     -2590.78645585
  atomic energy  EATOM  =     21122.79792691
  Solvation  Ediel_sol  =         0.00000000
  ---------------------------------------------------
  free energy    TOTEN  =      -257.76662549 eV

  energy without entropy =     -257.76662549  energy(sigma->0) =     -257.76662549


--------------------------------------------------------------------------------------------------------




 average (electrostatic) potential at core
  the test charge radii are     0.9406  0.9748  1.1987
  (the norm of the test charge is              1.0000)
       1 -93.8882       2 -93.8883       3 -93.8882       4 -93.8887       5 -93.8886
       6 -93.8886       7 -93.4920       8 -93.4918       9 -93.4918      10 -93.5277
      11 -93.5278      12 -93.5276      13 -93.8212      14 -93.8212      15 -93.8211
      16 -93.5583      17 -93.5583      18 -93.5583      19 -93.9574      20 -93.9573
      21 -93.9574      22 -93.8776      23 -93.8776      24 -93.8775      25 -93.0196
      26 -93.0196      27 -93.0196      28 -93.5733      29 -93.5733      30 -93.5733
      31 -94.0231      32 -94.0233      33 -94.0232      34 -93.8359      35 -93.8360
      36 -93.8360      37 -28.5547      38 -28.5549      39 -28.5548      40 -28.4255
      41 -28.4255      42 -28.4255      43 -28.5437      44 -28.5437      45 -28.5436
      46 -28.5187      47 -28.5188      48 -28.5185      49 -28.5801      50 -28.5801
      51 -28.5800      52 -28.3743      53 -28.3742      54 -28.3743      55 -40.5117
      56 -40.9839      57 -40.6779      58 -41.0816      59 -40.8969      60 -40.8938
 
 
 
 E-fermi :   0.4049     XC(G=0):  -8.0426     alpha+bet : -8.1532


 k-point     1 :       0.0000    0.0000    0.0000
  band No.  band energies     occupation 
      1     -41.5332      2.00000
      2     -41.4357      2.00000
      3     -41.3553      2.00000
      4     -41.3536      2.00000
      5     -41.1292      2.00000
      6     -40.9712      2.00000
      7     -21.6771      2.00000
      8     -21.6317      2.00000
      9     -21.6317      2.00000
     10     -21.5493      2.00000
     11     -21.5337      2.00000
     12     -21.5336      2.00000
     13     -21.4722      2.00000
     14     -21.4722      2.00000
     15     -21.4661      2.00000
     16     -21.4660      2.00000
     17     -21.4624      2.00000
     18     -21.4475      2.00000
     19     -21.2348      2.00000
     20     -21.2325      2.00000
     21     -21.2325      2.00000
     22     -21.0899      2.00000
     23     -21.0899      2.00000
     24     -21.0813      2.00000
     25     -13.8394      2.00000
     26     -13.7024      2.00000
     27     -13.6298      2.00000
     28     -13.5316      2.00000
     29     -13.5316      2.00000
     30     -13.4772      2.00000
     31     -13.4772      2.00000
     32     -13.4721      2.00000
     33     -13.4519      2.00000
     34     -13.4519      2.00000
     35     -13.4245      2.00000
     36     -13.4244      2.00000
     37     -13.3749      2.00000
     38     -13.3749      2.00000
     39     -13.3630      2.00000
     40     -13.3507      2.00000
     41     -13.3366      2.00000
     42     -13.3366      2.00000
     43     -13.2716      2.00000
     44     -13.2652      2.00000
     45     -13.2651      2.00000
     46     -13.2342      2.00000
     47     -13.2180      2.00000
     48     -13.1376      2.00000
     49     -13.1375      2.00000
     50     -13.0652      2.00000
     51     -13.0652      2.00000
     52     -13.0310      2.00000
     53     -13.0309      2.00000
     54     -13.0006      2.00000
     55     -12.9417      2.00000
     56     -12.9416      2.00000
     57     -12.9277      2.00000
     58     -12.5985      2.00000
     59     -12.5907      2.00000
     60     -12.5907      2.00000
     61      -3.2602      2.00000
     62      -3.1558      2.00000
     63      -3.0385      2.00000
     64      -3.0384      2.00000
     65      -2.9381      2.00000
     66      -2.8988      2.00000
     67      -2.8988      2.00000
     68      -2.8909      2.00000
     69      -2.8204      2.00000
     70      -2.7994      2.00000
     71      -2.7994      2.00000
     72      -2.7637      2.00000
     73      -2.7637      2.00000
     74      -2.6967      2.00000
     75      -2.6967      2.00000
     76      -2.6896      2.00000
     77      -2.6694      2.00000
     78      -2.6694      2.00000
     79      -2.6372      2.00000
     80      -2.5741      2.00000
     81      -2.5741      2.00000
     82      -2.5325      2.00000
     83      -2.5325      2.00000
     84      -2.4892      2.00000
     85      -2.4892      2.00000
     86      -2.4285      2.00000
     87      -2.4097      2.00000
     88      -2.4097      2.00000
     89      -2.3562      2.00000
     90      -2.3342      2.00000
     91      -2.3312      2.00000
     92      -2.3312      2.00000
     93      -2.2894      2.00000
     94      -2.2458      2.00000
     95      -2.2080      2.00000
     96      -2.2080      2.00000
     97      -2.1790      2.00000
     98      -2.1241      2.00000
     99      -2.1241      2.00000
    100      -2.0720      2.00000
    101      -2.0157      2.00000
    102      -2.0157      2.00000
    103      -1.9299      2.00000
    104      -1.9123      2.00000
    105      -1.8990      2.00000
    106      -1.8990      2.00000
    107      -1.8927      2.00000
    108      -1.8575      2.00000
    109      -1.8575      2.00000
    110      -1.8165      2.00000
    111      -1.7534      2.00000
    112      -1.7534      2.00000
    113      -1.6966      2.00000
    114      -1.6966      2.00000
    115      -1.6799      2.00000
    116      -1.6344      2.00000
    117      -1.6344      2.00000
    118      -1.6241      2.00000
    119      -1.5528      2.00000
    120      -1.5170      2.00000
    121      -1.5169      2.00000
    122      -1.4764      2.00000
    123      -1.4764      2.00000
    124      -1.4581      2.00000
    125      -1.3745      2.00000
    126      -1.3556      2.00000
    127      -1.3556      2.00000
    128      -1.3417      2.00000
    129      -1.2768      2.00000
    130      -1.2687      2.00000
    131      -1.2686      2.00000
    132      -1.2394      2.00000
    133      -1.2394      2.00000
    134      -1.2003      2.00000
    135      -1.2003      2.00000
    136      -1.1536      2.00000
    137      -1.1350      2.00000
    138      -1.1350      2.00000
    139      -1.0902      2.00000
    140      -1.0547      2.00000
    141      -1.0547      2.00000
    142      -1.0311      2.00000
    143      -0.9854      2.00000
    144      -0.9853      2.00000
    145      -0.9694      2.00000
    146      -0.9320      2.00000
    147      -0.9320      2.00000
    148      -0.9052      2.00000
    149      -0.8863      2.00000
    150      -0.8862      2.00000
    151      -0.8484      2.00000
    152      -0.8180      2.00000
    153      -0.7926      2.00000
    154      -0.7926      2.00000
    155      -0.7359      2.00000
    156      -0.7359      2.00000
    157      -0.6797      2.00000
    158      -0.6770      2.00000
    159      -0.6770      2.00000
    160      -0.6502      2.00000
    161      -0.6174      2.00000
    162      -0.6174      2.00000
    163      -0.5814      2.00000
    164      -0.5510      2.00000
    165      -0.5510      2.00000
    166      -0.5501      2.00000
    167      -0.1904      2.00000
    168      -0.1903      2.00000
    169       3.9966      0.00000
    170       4.3134      0.00000
    171       4.3134      0.00000
    172       4.3767      0.00000
    173       4.3807      0.00000
    174       4.3807      0.00000
    175       4.4460      0.00000
    176       4.4460      0.00000
    177       4.5260      0.00000
    178       4.5260      0.00000
    179       4.5274      0.00000
    180       4.7411      0.00000
    181       4.7411      0.00000
    182       4.7773      0.00000
    183       4.8844      0.00000
    184       4.8844      0.00000
    185       4.9075      0.00000
    186       4.9767      0.00000
    187       5.4582      0.00000
    188       5.9989      0.00000
    189       5.9989      0.00000
    190       6.2368      0.00000
    191       6.2369      0.00000
    192       6.3675      0.00000
    193       6.3675      0.00000
    194       6.4215      0.00000
    195       6.4216      0.00000
    196       6.5140      0.00000
    197       6.5140      0.00000
    198       6.5992      0.00000
    199       6.6919      0.00000
    200       6.6919      0.00000
    201       6.7025      0.00000
    202       7.0551      0.00000
    203       7.1526      0.00000
    204       7.2511      0.00000
    205       7.2785      0.00000
    206       7.2785      0.00000
    207       7.3683      0.00000
    208       7.3683      0.00000
    209       7.4327      0.00000
    210       7.5131      0.00000
    211       7.5131      0.00000
    212       7.6053      0.00000
    213       7.6931      0.00000
    214       7.7287      0.00000
    215       7.7775      0.00000
    216       7.7775      0.00000
    217       7.9406      0.00000
    218       7.9406      0.00000
    219       8.0363      0.00000
    220       8.0363      0.00000
    221       8.0515      0.00000
    222       8.2110      0.00000
    223       8.2110      0.00000
    224       8.3367      0.00000
    225       8.3367      0.00000
    226       8.3864      0.00000
    227       8.4936      0.00000
    228       8.4936      0.00000
    229       8.6491      0.00000
    230       8.6741      0.00000
    231       8.6741      0.00000
    232       8.7694      0.00000
    233       8.8676      0.00000
    234       8.8676      0.00000
    235       9.0418      0.00000
    236       9.0418      0.00000
    237       9.0549      0.00000
    238       9.0956      0.00000
    239       9.2047      0.00000
    240       9.2047      0.00000


--------------------------------------------------------------------------------------------------------


 soft charge-density along one line, spin component           1
         0         1         2         3         4         5         6         7         8         9
 total charge-density along one line
 
 pseudopotential strength for first ion, spin component:           1
 47.852  -0.017   0.003   0.006  -0.007   0.000   0.000  -0.000
 -0.017   0.019   0.000   0.000  -0.000   0.000   0.000  -0.000
  0.003   0.000   9.156   0.001  -0.001  -0.001  -0.000   0.000
  0.006   0.000   0.001   9.156  -0.002  -0.000  -0.001   0.000
 -0.007  -0.000  -0.001  -0.002   9.157   0.000   0.000  -0.001
  0.000   0.000  -0.001  -0.000   0.000   0.035   0.000  -0.000
  0.000   0.000  -0.000  -0.001   0.000   0.000   0.035  -0.000
 -0.000  -0.000   0.000   0.000  -0.001  -0.000  -0.000   0.035
 total augmentation occupancy for first ion, spin component:           1
  1.919   0.383  -0.013  -0.028   0.030  -0.015  -0.030   0.036
  0.383   0.317   0.072   0.154  -0.172  -0.029  -0.070   0.059
 -0.013   0.072   1.763  -0.014   0.009  -0.360  -0.034   0.024
 -0.028   0.154  -0.014   1.770   0.024  -0.034  -0.347   0.047
  0.030  -0.172   0.009   0.024   1.754   0.024   0.047  -0.381
 -0.015  -0.029  -0.360  -0.034   0.024   0.105   0.021  -0.016
 -0.030  -0.070  -0.034  -0.347   0.047   0.021   0.101  -0.031
  0.036   0.059   0.024   0.047  -0.381  -0.016  -0.031   0.118


------------------------ aborting loop because EDIFF is reached ----------------------------------------


 


 total charge     
 
# of ion       s       p       d       tot
------------------------------------------
    1        1.593   3.573   0.000   5.166
    2        1.593   3.573   0.000   5.166
    3        1.593   3.573   0.000   5.166
    4        1.592   3.579   0.000   5.171
    5        1.592   3.579   0.000   5.171
    6        1.592   3.579   0.000   5.171
    7        1.591   3.588   0.000   5.179
    8        1.591   3.588   0.000   5.179
    9        1.591   3.588   0.000   5.179
   10        1.593   3.576   0.000   5.168
   11        1.593   3.576   0.000   5.168
   12        1.593   3.576   0.000   5.168
   13        1.593   3.585   0.000   5.178
   14        1.593   3.585   0.000   5.178
   15        1.593   3.585   0.000   5.178
   16        1.590   3.588   0.000   5.178
   17        1.590   3.588   0.000   5.178
   18        1.590   3.588   0.000   5.178
   19        1.592   3.577   0.000   5.169
   20        1.592   3.577   0.000   5.169
   21        1.592   3.577   0.000   5.169
   22        1.593   3.579   0.000   5.172
   23        1.593   3.579   0.000   5.172
   24        1.593   3.579   0.000   5.172
   25        1.588   3.588   0.000   5.176
   26        1.588   3.588   0.000   5.176
   27        1.588   3.588   0.000   5.176
   28        1.590   3.588   0.000   5.179
   29        1.590   3.588   0.000   5.179
   30        1.590   3.588   0.000   5.179
   31        1.596   3.565   0.000   5.161
   32        1.596   3.565   0.000   5.161
   33        1.596   3.565   0.000   5.161
   34        1.593   3.577   0.000   5.170
   35        1.593   3.577   0.000   5.170
   36        1.593   3.577   0.000   5.170
   37        0.056   0.102   0.000   0.159
   38        0.056   0.102   0.000   0.159
   39        0.056   0.102   0.000   0.159
   40        0.060   0.110   0.000   0.170
   41        0.060   0.110   0.000   0.170
   42        0.060   0.110   0.000   0.170
   43        0.057   0.102   0.000   0.158
   44        0.057   0.102   0.000   0.158
   45        0.057   0.102   0.000   0.158
   46        0.057   0.104   0.000   0.161
   47        0.057   0.104   0.000   0.161
   48        0.057   0.104   0.000   0.161
   49        0.060   0.106   0.000   0.166
   50        0.060   0.106   0.000   0.166
   51        0.060   0.106   0.000   0.166
   52        0.059   0.109   0.000   0.168
   53        0.059   0.109   0.000   0.168
   54        0.059   0.109   0.000   0.168
   55        2.122   6.130   0.691   8.944
   56        2.121   6.124   0.677   8.922
   57        2.120   6.124   0.677   8.920
   58        2.120   6.119   0.685   8.923
   59        2.122   6.128   0.686   8.936
   60        2.123   6.127   0.702   8.951
--------------------------------------------------
tot         71.081 167.539   4.117 242.737
 
    CHARGE:  cpu time    0.1217: real time    0.1217
    FORLOC:  cpu time    0.0221: real time    0.0221
    FORNL :  cpu time    0.4798: real time    0.4798
    STRESS:  cpu time    1.4828: real time    1.4829
    FORCOR:  cpu time    0.0737: real time    0.0737
    FORHAR:  cpu time    0.0326: real time    0.0327
    MIXING:  cpu time    0.0036: real time    0.0036
    OFIELD:  cpu time    0.0000: real time    0.0000

  FORCE on cell =-STRESS in cart. coord.  units (eV):
  Direction    XX          YY          ZZ          XY          YZ          ZX
  --------------------------------------------------------------------------------------
  Alpha Z   571.58137   571.58137   571.58137
  Ewald   -4923.40839 -4923.41108 -5318.28739    -0.00221    -0.00166    -0.00061
  Hartree  1855.14083  1855.14177  1610.90429     0.00064    -0.00006     0.00034
  E(xc)   -1246.31689 -1246.31685 -1246.99105     0.00002    -0.00002     0.00002
  Local   -3365.22002 -3365.22316 -2722.68425    -0.00099     0.00316    -0.00152
  n-local  2684.71541  2684.71458  2686.75489    -0.00035     0.00044    -0.00028
  augment  -619.14165  -619.14225  -619.65375    -0.00052     0.00012    -0.00006
  Kinetic  5045.28532  5045.28578  5038.59553     0.00023    -0.00017     0.00030
  Fock        0.00000     0.00000     0.00000     0.00000     0.00000     0.00000
  -------------------------------------------------------------------------------------
  Total       2.63307     2.63308     0.21963     0.00000    -0.00000     0.00000
  in kB       3.05788     3.05789     0.25507     0.00000    -0.00000     0.00000
  external pressure =        2.12 kB  Pullay stress =        0.00 kB


 VOLUME and BASIS-vectors are now :
 -----------------------------------------------------------------------------
  energy-cutoff  :      520.00
  volume of cell :     1379.60
      direct lattice vectors                 reciprocal lattice vectors
    11.334128968  0.000003780  0.000002558     0.088229083  0.050939039 -0.000000003
    -5.667061570  9.815647364 -0.000003655    -0.000000034  0.101878131  0.000000024
     0.000002030 -0.000002865 12.400680362    -0.000000018  0.000000020  0.080640737

  length of vectors
    11.334128968 11.334130757 12.400680362     0.101878147  0.101878131  0.080640737


 FORCES acting on ions
    electron-ion (+dipol)            ewald-force                    non-local-force                 convergence-correction
 -----------------------------------------------------------------------------------------------
   -.814E+02 0.463E+02 0.493E+02   0.818E+02 -.464E+02 -.497E+02   -.400E+00 0.116E+00 0.358E+00   0.106E-03 -.257E-03 0.472E-03
   0.578E+00 -.936E+02 0.493E+02   -.673E+00 0.941E+02 -.497E+02   0.992E-01 -.404E+00 0.358E+00   0.170E-03 0.221E-03 0.472E-03
   0.808E+02 0.473E+02 0.493E+02   -.811E+02 -.476E+02 -.497E+02   0.300E+00 0.288E+00 0.358E+00   -.275E-03 0.363E-04 0.472E-03
   0.664E+02 -.275E+02 -.702E+02   -.670E+02 0.274E+02 0.706E+02   0.661E+00 0.128E+00 -.404E+00   -.260E-03 0.464E-03 -.780E-03
   -.570E+02 -.437E+02 -.702E+02   0.572E+02 0.443E+02 0.706E+02   -.220E+00 -.636E+00 -.404E+00   0.532E-03 -.589E-05 -.780E-03
   -.934E+01 0.712E+02 -.702E+02   0.978E+01 -.718E+02 0.706E+02   -.441E+00 0.508E+00 -.404E+00   -.272E-03 -.458E-03 -.780E-03
   -.535E+02 0.349E+02 0.813E+02   0.538E+02 -.354E+02 -.817E+02   -.243E+00 0.500E+00 0.381E+00   -.140E-04 -.101E-03 0.137E-03
   -.346E+01 -.638E+02 0.813E+02   0.377E+01 0.643E+02 -.817E+02   -.311E+00 -.460E+00 0.381E+00   0.945E-04 0.387E-04 0.137E-03
   0.570E+02 0.289E+02 0.813E+02   -.575E+02 -.289E+02 -.817E+02   0.554E+00 -.394E-01 0.381E+00   -.806E-04 0.624E-04 0.137E-03
   0.539E+02 -.455E+02 -.499E+02   -.540E+02 0.460E+02 0.503E+02   0.128E+00 -.517E+00 -.422E+00   -.959E-04 -.237E-03 -.286E-03
   -.663E+02 -.239E+02 -.499E+02   0.668E+02 0.238E+02 0.503E+02   -.512E+00 0.148E+00 -.422E+00   -.157E-03 0.202E-03 -.286E-03
   0.124E+02 0.694E+02 -.499E+02   -.128E+02 -.697E+02 0.503E+02   0.384E+00 0.370E+00 -.422E+00   0.253E-03 0.355E-04 -.286E-03
   0.625E+02 -.469E+02 -.749E+02   -.630E+02 0.472E+02 0.747E+02   0.467E+00 -.272E+00 0.234E+00   -.224E-03 0.299E-03 -.301E-03
   0.936E+01 0.776E+02 -.749E+02   -.936E+01 -.781E+02 0.747E+02   0.154E-02 0.540E+00 0.234E+00   -.147E-03 -.343E-03 -.301E-03
   -.719E+02 -.307E+02 -.749E+02   0.723E+02 0.310E+02 0.747E+02   -.469E+00 -.269E+00 0.234E+00   0.370E-03 0.446E-04 -.301E-03
   -.656E+02 0.300E+02 -.559E+02   0.659E+02 -.297E+02 0.564E+02   -.287E+00 -.300E+00 -.556E+00   0.318E-03 -.107E-03 0.338E-04
   0.588E+02 0.418E+02 -.559E+02   -.587E+02 -.422E+02 0.564E+02   -.116E+00 0.399E+00 -.556E+00   -.252E-03 -.222E-03 0.338E-04
   0.679E+01 -.718E+02 -.559E+02   -.720E+01 0.719E+02 0.564E+02   0.404E+00 -.987E-01 -.556E+00   -.662E-04 0.329E-03 0.338E-04
   0.654E+02 -.341E+02 0.697E+02   -.657E+02 0.343E+02 -.698E+02   0.335E+00 -.214E+00 0.115E+00   -.735E-04 0.184E-03 0.719E-03
   -.318E+01 0.737E+02 0.697E+02   0.317E+01 -.741E+02 -.698E+02   0.182E-01 0.397E+00 0.115E+00   -.122E-03 -.156E-03 0.719E-03
   -.622E+02 -.396E+02 0.697E+02   0.625E+02 0.398E+02 -.698E+02   -.353E+00 -.183E+00 0.115E+00   0.196E-03 -.279E-04 0.718E-03
   -.640E+02 0.358E+02 -.711E+02   0.641E+02 -.361E+02 0.716E+02   -.174E+00 0.373E+00 -.544E+00   0.524E-03 -.104E-03 -.957E-03
   0.630E+02 0.375E+02 -.711E+02   -.634E+02 -.375E+02 0.716E+02   0.410E+00 -.364E-01 -.544E+00   -.353E-03 -.402E-03 -.957E-03
   0.998E+00 -.733E+02 -.711E+02   -.762E+00 0.736E+02 0.716E+02   -.237E+00 -.337E+00 -.544E+00   -.172E-03 0.506E-03 -.957E-03
   0.537E+02 -.320E+02 -.187E+02   -.549E+02 0.327E+02 0.187E+02   0.114E+01 -.644E+00 0.563E-01   0.615E-03 -.568E-03 -.317E-04
   0.861E+00 0.625E+02 -.187E+02   -.849E+00 -.638E+02 0.187E+02   -.100E-01 0.131E+01 0.563E-01   0.185E-03 0.818E-03 -.317E-04
   -.546E+02 -.305E+02 -.187E+02   0.557E+02 0.312E+02 0.187E+02   -.113E+01 -.661E+00 0.563E-01   -.800E-03 -.249E-03 -.317E-04
   0.692E+02 -.295E+02 0.530E+02   -.696E+02 0.296E+02 -.529E+02   0.375E+00 -.143E+00 -.140E+00   -.169E-03 -.112E-03 0.368E-03
   -.601E+02 -.452E+02 0.530E+02   0.605E+02 0.454E+02 -.529E+02   -.311E+00 -.253E+00 -.140E+00   -.118E-04 0.202E-03 0.368E-03
   -.905E+01 0.747E+02 0.530E+02   0.912E+01 -.751E+02 -.529E+02   -.638E-01 0.396E+00 -.140E+00   0.181E-03 -.909E-04 0.368E-03
   -.149E+03 0.867E+02 0.937E+01   0.150E+03 -.871E+02 -.945E+01   -.139E+01 0.434E+00 0.841E-01   0.327E-04 -.378E-03 0.117E-03
   -.791E+00 -.172E+03 0.937E+01   0.479E+00 0.173E+03 -.945E+01   0.319E+00 -.142E+01 0.841E-01   0.311E-03 0.218E-03 0.117E-03
   0.149E+03 0.853E+02 0.937E+01   -.150E+03 -.863E+02 -.945E+01   0.107E+01 0.987E+00 0.841E-01   -.344E-03 0.160E-03 0.117E-03
   0.567E+02 -.416E+02 0.749E+02   -.568E+02 0.420E+02 -.757E+02   0.700E-01 -.449E+00 0.829E+00   -.239E-03 -.101E-03 0.351E-03
   -.644E+02 -.283E+02 0.749E+02   0.648E+02 0.281E+02 -.757E+02   -.424E+00 0.164E+00 0.829E+00   0.325E-04 0.258E-03 0.351E-03
   0.768E+01 0.699E+02 0.749E+02   -.803E+01 -.702E+02 -.757E+02   0.354E+00 0.285E+00 0.829E+00   0.207E-03 -.157E-03 0.351E-03
   0.663E+01 -.138E+01 0.119E+01   -.605E+01 0.175E+01 -.144E+01   -.579E+00 -.367E+00 0.248E+00   0.118E-04 -.104E-04 0.165E-04
   -.212E+01 0.643E+01 0.119E+01   0.151E+01 -.612E+01 -.144E+01   0.607E+00 -.318E+00 0.248E+00   0.314E-05 0.154E-04 0.165E-04
   -.451E+01 -.505E+01 0.119E+01   0.454E+01 0.436E+01 -.144E+01   -.284E-01 0.685E+00 0.248E+00   -.149E-04 -.499E-05 0.164E-04
   0.412E+00 0.333E+01 -.371E+00   0.245E+00 -.328E+01 0.231E+00   -.660E+00 -.390E-01 0.143E+00   -.116E-04 0.916E-05 -.108E-04
   -.309E+01 -.131E+01 -.371E+00   0.272E+01 0.185E+01 0.231E+00   0.364E+00 -.552E+00 0.143E+00   -.215E-05 -.146E-04 -.108E-04
   0.268E+01 -.202E+01 -.371E+00   -.297E+01 0.143E+01 0.231E+00   0.296E+00 0.591E+00 0.143E+00   0.137E-04 0.544E-05 -.108E-04
   0.760E-01 0.149E+01 0.498E+00   -.635E+00 -.161E+01 -.502E+00   0.565E+00 0.121E+00 0.837E-02   0.780E-05 0.106E-04 -.835E-05
   -.133E+01 -.680E+00 0.497E+00   0.171E+01 0.256E+00 -.502E+00   -.387E+00 0.428E+00 0.837E-02   -.131E-04 0.144E-05 -.835E-05
   0.125E+01 -.811E+00 0.498E+00   -.108E+01 0.136E+01 -.502E+00   -.178E+00 -.550E+00 0.837E-02   0.531E-05 -.121E-04 -.835E-05
   0.473E+01 0.485E+01 -.117E+01   -.421E+01 -.497E+01 0.121E+01   -.511E+00 0.114E+00 -.415E-01   -.554E-05 0.219E-04 -.884E-05
   -.657E+01 0.167E+01 -.117E+01   0.641E+01 -.116E+01 0.121E+01   0.157E+00 -.499E+00 -.415E-01   -.162E-04 -.158E-04 -.884E-05
   0.184E+01 -.652E+01 -.117E+01   -.220E+01 0.613E+01 0.121E+01   0.354E+00 0.386E+00 -.415E-01   0.217E-04 -.615E-05 -.884E-05
   -.350E+00 0.724E+00 0.176E+01   -.395E-01 -.504E+00 -.141E+01   0.387E+00 -.228E+00 -.362E+00   0.955E-05 -.437E-05 0.115E-04
   -.451E+00 -.665E+00 0.176E+01   0.456E+00 0.218E+00 -.141E+01   0.384E-02 0.449E+00 -.362E+00   -.993E-06 0.105E-04 0.115E-04
   0.802E+00 -.586E-01 0.176E+01   -.417E+00 0.286E+00 -.141E+01   -.390E+00 -.221E+00 -.362E+00   -.856E-05 -.608E-05 0.115E-04
   -.287E+01 0.459E+01 -.250E+01   0.249E+01 -.470E+01 0.265E+01   0.386E+00 0.114E+00 -.150E+00   0.508E-05 0.217E-04 -.111E-04
   -.254E+01 -.478E+01 -.250E+01   0.283E+01 0.451E+01 0.265E+01   -.292E+00 0.278E+00 -.150E+00   -.213E-04 -.646E-05 -.111E-04
   0.541E+01 0.192E+00 -.250E+01   -.532E+01 0.197E+00 0.265E+01   -.949E-01 -.391E+00 -.150E+00   0.163E-04 -.153E-04 -.111E-04
   -.145E-02 -.685E-03 -.927E+01   -.198E-03 -.264E-03 0.856E+01   0.117E-06 -.165E-06 0.713E+00   0.366E-07 -.365E-07 0.381E-03
   0.611E-03 -.106E-02 0.826E-01   0.294E-03 -.381E-03 0.362E+00   -.734E-07 0.104E-06 -.448E+00   0.249E-07 -.432E-07 -.517E-03
   -.185E-03 -.753E-03 -.160E+01   -.348E-03 0.522E-04 0.177E+01   -.283E-07 0.399E-07 -.173E+00   0.223E-08 0.666E-07 0.134E-03
   0.735E-03 -.144E-02 0.132E+03   0.409E-03 -.325E-03 -.132E+03   -.276E-07 0.390E-07 -.169E+00   0.221E-07 -.285E-07 0.204E-03
   -.376E-03 0.177E-02 -.117E+01   -.397E-03 0.518E-03 0.941E+00   0.377E-07 -.532E-07 0.230E+00   -.203E-08 0.227E-07 -.146E-03
   -.149E-02 -.252E-03 -.109E+03   0.543E-03 -.611E-04 0.109E+03   -.370E-07 0.522E-07 -.226E+00   0.432E-07 -.166E-07 -.904E-03
 -----------------------------------------------------------------------------------------------
   0.714E-02 -.126E-01 0.557E+00   -.699E-13 -.201E-13 0.142E-13   -.911E-07 0.129E-06 -.557E+00   0.203E-06 0.349E-06 -.135E-02
 
 
 POSITION                                       TOTAL-FORCE (eV/Angst)
 -----------------------------------------------------------------------------------
     -3.65937      8.65264      4.72807         0.004393     -0.006185      0.000488
      0.00335      2.32021      4.72807         0.003160      0.006897      0.000488
      3.65603      8.65845      4.72807        -0.007553     -0.000712      0.000488
      9.40113      1.13607      7.46747        -0.004692      0.006564      0.001920
      1.95036      1.10599      7.46747         0.008031      0.000782      0.001920
      5.64970      7.57359      7.46747        -0.003338     -0.007346      0.001920
     -3.94089      8.57848     10.95027         0.002322      0.000406     -0.008635
      0.20834      2.11349     10.95028        -0.001513      0.001808     -0.008635
      3.73257      8.93933     10.95027        -0.000810     -0.002214     -0.008635
      9.32625      1.05013      1.51806        -0.001835      0.001389      0.000932
      1.91338      1.21381      1.51806         0.002120      0.000894      0.000932
      5.76157      7.55171      1.51805        -0.000285     -0.002283      0.000932
     -1.98641      7.66341      1.70786         0.003777      0.002465      0.001372
      0.02357      4.26366      1.70786        -0.004023      0.002038      0.001372
      1.96285      7.70423      1.70786         0.000246     -0.004503      0.001372
      7.66053      2.33749     10.66540         0.000769     -0.001031      0.003301
      3.86112      2.01270     10.66540        -0.001278     -0.000150      0.003301
      5.47956      5.46547     10.66540         0.000509      0.001182      0.003301
     -1.89988      7.83543      7.89106        -0.000780      0.000305      0.007319
     -0.16869      4.25259      7.89106         0.000126     -0.000828      0.007319
      2.06856      7.54327      7.89106         0.000654      0.000523      0.007319
      7.66198      2.22016      4.40472         0.007233     -0.000360     -0.000334
      3.75879      2.07009      4.40472        -0.003929     -0.006084     -0.000334
      5.58042      5.52539      4.40472        -0.003304      0.006444     -0.000334
      2.08967      5.26854      4.71127        -0.001360     -0.001719      0.001147
      0.05954      8.99108      4.71127         0.002168     -0.000319      0.001147
     -2.14921      5.37166      4.71126        -0.000808      0.002037      0.001147
      3.75681      4.38397      7.71089        -0.005244     -0.000952     -0.002863
      7.58528      4.37017      7.71088         0.001798      0.005017     -0.002863
      5.65910      1.06150      7.71090         0.003446     -0.004065     -0.002863
      1.68992      5.49360     11.00582         0.007081     -0.010813      0.003763
      0.06452      8.53236     11.00582         0.005824      0.011538      0.003763
     -1.75443      5.60534     11.00582        -0.012905     -0.000725      0.003763
      3.67162      4.29232      1.56973        -0.003924      0.000737     -0.007036
      7.54851      4.48976      1.56973         0.002600      0.003030     -0.007036
      5.78106      1.03356      1.56973         0.001324     -0.003767     -0.007036
      7.67298      0.41653     12.13797         0.000522      0.001959     -0.005025
      7.13693      6.43673     12.13797        -0.001958     -0.000527     -0.005025
      2.19131      2.96239     12.13798         0.001435     -0.001432     -0.005025
      4.04244      0.12066      6.13549        -0.002941      0.004804      0.003210
      9.20842      3.44053      6.13549        -0.002691     -0.004949      0.003210
      3.75034      6.25447      6.13549         0.005631      0.000144      0.003210
      1.66238      9.60221      6.43888         0.005640      0.000226      0.003529
     -3.47988      6.45421      6.43887        -0.003016      0.004771      0.003529
      1.81750      3.57488      6.43888        -0.002624     -0.004997      0.003529
     -1.61779      9.72411      3.00536         0.003509     -0.001301     -0.001609
     -1.94536      3.55253      3.00536        -0.000628      0.003690     -0.001609
      3.56316      6.35464      3.00536        -0.002881     -0.002389     -0.001609
      3.02344      0.09759      9.47208        -0.003077     -0.008085     -0.002190
      9.73791      2.56958      9.47208         0.008541      0.001378     -0.002190
      4.23986      7.14848      9.47208        -0.005464      0.006707     -0.002190
      1.81986      9.75492      3.17855         0.003247     -0.000115     -0.001964
     -3.69088      6.51423      3.17854        -0.001524      0.002870     -0.001964
      1.87102      3.36214      3.17855        -0.001724     -0.002755     -0.001964
      0.00000      0.00000      0.14535         0.000000     -0.000000      0.000626
      0.00000      0.00000      6.02539        -0.000000      0.000000     -0.004274
      5.66707      3.27188      9.18703        -0.000000      0.000000     -0.004245
      0.00000      6.54377      9.14389        -0.000000      0.000000     -0.002344
      5.66707      3.27188      2.98584        -0.000000      0.000000     -0.002654
      0.00000      6.54377      0.47563         0.000000     -0.000000      0.020913
 -----------------------------------------------------------------------------------
    total drift:                                0.007136     -0.012602     -0.000947


--------------------------------------------------------------------------------------------------------



  FREE ENERGIE OF THE ION-ELECTRON SYSTEM (eV)
  ---------------------------------------------------
  free  energy   TOTEN  =      -257.76662549 eV

  energy  without entropy=     -257.76662549  energy(sigma->0) =     -257.76662549
 
 d Force = 0.4418994E-03[ 0.331E-03, 0.553E-03]  d Energy = 0.4462779E-03-0.438E-05
 d Force = 0.1909202E+01[ 0.191E+01, 0.191E+01]  d Ewald  = 0.1909201E+01 0.685E-06


--------------------------------------------------------------------------------------------------------


    POTLOK:  cpu time    0.0716: real time    0.0717


--------------------------------------------------------------------------------------------------------


 Conjugate gradient step on ions:
 trial-energy change:   -0.000446  1 .order   -0.000442   -0.000553   -0.000331
  (g-gl).g = 0.341E-03      g.g   = 0.390E-03  gl.gl    = 0.684E-03
 g(Force)  = 0.390E-03   g(Stress)= 0.000E+00 ortho     =-0.442E-04
 gamma     =   0.49854
 trial     =   1.50411
 opt step  =   3.74682  (harmonic =   3.74682) maximal distance =0.00406446
 next E    =  -257.766868   (d E  =  -0.00069)


--------------------------------------------------------------------------------------------------------


    WAVPRE:  cpu time    0.0317: real time    0.0337
    FEWALD:  cpu time    0.0011: real time    0.0011
    ORTHCH:  cpu time    0.2371: real time    0.2372
     LOOP+:  cpu time   13.4350: real time   13.4628


--------------------------------------- Iteration      7(   1)  ---------------------------------------


    POTLOK:  cpu time    0.0676: real time    0.0693
    SETDIJ:  cpu time    0.0054: real time    0.0054
     EDDAV:  cpu time    1.4453: real time    1.4458
       DOS:  cpu time    0.0010: real time    0.0010
    CHARGE:  cpu time    0.1223: real time    0.1223
    MIXING:  cpu time    0.0030: real time    0.0030
    --------------------------------------------
      LOOP:  cpu time    1.6445: real time    1.6468

 eigenvalue-minimisations  :   480
 total energy-change (2. order) : 0.7452307E-03  (-0.2581381E-01)
 number of electron     335.9999973 magnetization 
 augmentation part      -21.1955796 magnetization 

 Broyden mixing:
  rms(total) = 0.87636E-02    rms(broyden)= 0.87624E-02
  rms(prec ) = 0.10335E-01
  weight for this iteration     100.00

 Free energy of the ion-electron system (eV)
  ---------------------------------------------------
  alpha Z        PSCENC =       571.58137139
  Ewald energy   TEWEN  =    -15167.86648398
  -Hartree energ DENC   =     -5318.49199084
  -exchange      EXHF   =         0.00000000
  -V(xc)+E(xc)   XCENC  =       919.12480461
  PAW double counting   =     11943.14970868   -11737.43648636
  entropy T*S    EENTRO =        -0.00000000
  eigenvalues    EBANDS =     -2590.62473094
  atomic energy  EATOM  =     21122.79792691
  Solvation  Ediel_sol  =         0.00000000
  ---------------------------------------------------
  free energy    TOTEN  =      -257.76588053 eV

  energy without entropy =     -257.76588053  energy(sigma->0) =     -257.76588053


--------------------------------------------------------------------------------------------------------




--------------------------------------- Iteration      7(   2)  ---------------------------------------


    POTLOK:  cpu time    0.0689: real time    0.0692
    SETDIJ:  cpu time    0.0058: real time    0.0058
     EDDAV:  cpu time    1.7441: real time    1.7445
       DOS:  cpu time    0.0002: real time    0.0002
    CHARGE:  cpu time    0.1220: real time    0.1220
    MIXING:  cpu time    0.0022: real time    0.0022
    --------------------------------------------
      LOOP:  cpu time    1.9432: real time    1.9439

 eigenvalue-minimisations  :   600
 total energy-change (2. order) :-0.1017334E-02  (-0.1129817E-02)
 number of electron     335.9999973 magnetization 
 augmentation part      -21.1940901 magnetization 

 Broyden mixing:
  rms(total) = 0.28124E-02    rms(broyden)= 0.28082E-02
  rms(prec ) = 0.40968E-02
  weight for this iteration     100.00

 eigenvalues of (default mixing * dielectric matrix)
  average eigenvalue GAMMA=   0.8853
  0.8853

 Free energy of the ion-electron system (eV)
  ---------------------------------------------------
  alpha Z        PSCENC =       571.58137139
  Ewald energy   TEWEN  =    -15167.86648398
  -Hartree energ DENC   =     -5318.34561476
  -exchange      EXHF   =         0.00000000
  -V(xc)+E(xc)   XCENC  =       919.12294156
  PAW double counting   =     11942.83621550   -11737.12490618
  entropy T*S    EENTRO =        -0.00000000
  eigenvalues    EBANDS =     -2590.76834830
  atomic energy  EATOM  =     21122.79792691
  Solvation  Ediel_sol  =         0.00000000
  ---------------------------------------------------
  free energy    TOTEN  =      -257.76689786 eV

  energy without entropy =     -257.76689786  energy(sigma->0) =     -257.76689786


--------------------------------------------------------------------------------------------------------




--------------------------------------- Iteration      7(   3)  ---------------------------------------


    POTLOK:  cpu time    0.0637: real time    0.0669
    SETDIJ:  cpu time    0.0054: real time    0.0054
     EDDAV:  cpu time    2.1929: real time    2.1933
       DOS:  cpu time    0.0008: real time    0.0008
    CHARGE:  cpu time    0.1221: real time    0.1221
    MIXING:  cpu time    0.0033: real time    0.0033
    --------------------------------------------
      LOOP:  cpu time    2.3883: real time    2.3918

 eigenvalue-minimisations  :   780
 total energy-change (2. order) : 0.2014893E-04  (-0.1654138E-04)
 number of electron     335.9999973 magnetization 
 augmentation part      -21.1932527 magnetization 

 Broyden mixing:
  rms(total) = 0.22709E-02    rms(broyden)= 0.22708E-02
  rms(prec ) = 0.31435E-02
  weight for this iteration     100.00

 eigenvalues of (default mixing * dielectric matrix)
  average eigenvalue GAMMA=   1.5299
  1.1000  1.9598

 Free energy of the ion-electron system (eV)
  ---------------------------------------------------
  alpha Z        PSCENC =       571.58137139
  Ewald energy   TEWEN  =    -15167.86648398
  -Hartree energ DENC   =     -5318.25795271
  -exchange      EXHF   =         0.00000000
  -V(xc)+E(xc)   XCENC  =       919.12147158
  PAW double counting   =     11942.60053665   -11736.89630949
  entropy T*S    EENTRO =        -0.00000000
  eigenvalues    EBANDS =     -2590.84743806
  atomic energy  EATOM  =     21122.79792691
  Solvation  Ediel_sol  =         0.00000000
  ---------------------------------------------------
  free energy    TOTEN  =      -257.76687771 eV

  energy without entropy =     -257.76687771  energy(sigma->0) =     -257.76687771


--------------------------------------------------------------------------------------------------------




--------------------------------------- Iteration      7(   4)  ---------------------------------------


    POTLOK:  cpu time    0.0641: real time    0.0675
    SETDIJ:  cpu time    0.0059: real time    0.0059
     EDDAV:  cpu time    1.7539: real time    1.7542
       DOS:  cpu time    0.0003: real time    0.0002
    CHARGE:  cpu time    0.1221: real time    0.1221
    MIXING:  cpu time    0.0018: real time    0.0018
    --------------------------------------------
      LOOP:  cpu time    1.9480: real time    1.9517

 eigenvalue-minimisations  :   600
 total energy-change (2. order) : 0.2579960E-04  (-0.9575790E-05)
 number of electron     335.9999973 magnetization 
 augmentation part      -21.1931396 magnetization 

 Broyden mixing:
  rms(total) = 0.89264E-03    rms(broyden)= 0.89264E-03
  rms(prec ) = 0.10560E-02
  weight for this iteration     100.00

 eigenvalues of (default mixing * dielectric matrix)
  average eigenvalue GAMMA=   1.5248
  2.5533  1.0105  1.0105

 Free energy of the ion-electron system (eV)
  ---------------------------------------------------
  alpha Z        PSCENC =       571.58137139
  Ewald energy   TEWEN  =    -15167.86648398
  -Hartree energ DENC   =     -5318.14205910
  -exchange      EXHF   =         0.00000000
  -V(xc)+E(xc)   XCENC  =       919.11897513
  PAW double counting   =     11942.18212102   -11736.49298192
  entropy T*S    EENTRO =        -0.00000000
  eigenvalues    EBANDS =     -2590.94572137
  atomic energy  EATOM  =     21122.79792691
  Solvation  Ediel_sol  =         0.00000000
  ---------------------------------------------------
  free energy    TOTEN  =      -257.76685191 eV

  energy without entropy =     -257.76685191  energy(sigma->0) =     -257.76685191


--------------------------------------------------------------------------------------------------------




--------------------------------------- Iteration      7(   5)  ---------------------------------------


    POTLOK:  cpu time    0.0642: real time    0.0675
    SETDIJ:  cpu time    0.0055: real time    0.0055
     EDDAV:  cpu time    1.6089: real time    1.6092
       DOS:  cpu time    0.0002: real time    0.0002
    CHARGE:  cpu time    0.1220: real time    0.1220
    MIXING:  cpu time    0.0019: real time    0.0019
    --------------------------------------------
      LOOP:  cpu time    1.8027: real time    1.8063

 eigenvalue-minimisations  :   540
 total energy-change (2. order) :-0.1376371E-05  (-0.2001331E-05)
 number of electron     335.9999973 magnetization 
 augmentation part      -21.1934601 magnetization 

 Broyden mixing:
  rms(total) = 0.73317E-03    rms(broyden)= 0.73317E-03
  rms(prec ) = 0.84669E-03
  weight for this iteration     100.00

 eigenvalues of (default mixing * dielectric matrix)
  average eigenvalue GAMMA=   1.7362
  3.3700  0.8382  1.3683  1.3683

 Free energy of the ion-electron system (eV)
  ---------------------------------------------------
  alpha Z        PSCENC =       571.58137139
  Ewald energy   TEWEN  =    -15167.86648398
  -Hartree energ DENC   =     -5318.14501510
  -exchange      EXHF   =         0.00000000
  -V(xc)+E(xc)   XCENC  =       919.11859875
  PAW double counting   =     11942.07552302   -11736.38949384
  entropy T*S    EENTRO =        -0.00000000
  eigenvalues    EBANDS =     -2590.93928045
  atomic energy  EATOM  =     21122.79792691
  Solvation  Ediel_sol  =         0.00000000
  ---------------------------------------------------
  free energy    TOTEN  =      -257.76685329 eV

  energy without entropy =     -257.76685329  energy(sigma->0) =     -257.76685329


--------------------------------------------------------------------------------------------------------




--------------------------------------- Iteration      7(   6)  ---------------------------------------


    POTLOK:  cpu time    0.0646: real time    0.0681
    SETDIJ:  cpu time    0.0055: real time    0.0055
     EDDAV:  cpu time    1.3365: real time    1.3367
       DOS:  cpu time    0.0002: real time    0.0002
    --------------------------------------------
      LOOP:  cpu time    1.4068: real time    1.4105

 eigenvalue-minimisations  :   420
 total energy-change (2. order) : 0.3418099E-06  (-0.1619158E-06)
 number of electron     335.9999973 magnetization 
 augmentation part      -21.1934601 magnetization 

 Free energy of the ion-electron system (eV)
  ---------------------------------------------------
  alpha Z        PSCENC =       571.58137139
  Ewald energy   TEWEN  =    -15167.86648398
  -Hartree energ DENC   =     -5318.14643721
  -exchange      EXHF   =         0.00000000
  -V(xc)+E(xc)   XCENC  =       919.11820218
  PAW double counting   =     11941.90383082   -11736.22115464
  entropy T*S    EENTRO =        -0.00000000
  eigenvalues    EBANDS =     -2590.93410842
  atomic energy  EATOM  =     21122.79792691
  Solvation  Ediel_sol  =         0.00000000
  ---------------------------------------------------
  free energy    TOTEN  =      -257.76685295 eV

  energy without entropy =     -257.76685295  energy(sigma->0) =     -257.76685295


--------------------------------------------------------------------------------------------------------




 average (electrostatic) potential at core
  the test charge radii are     0.9406  0.9748  1.1987
  (the norm of the test charge is              1.0000)
       1 -93.8904       2 -93.8905       3 -93.8904       4 -93.8901       5 -93.8901
       6 -93.8901       7 -93.4889       8 -93.4888       9 -93.4888      10 -93.5287
      11 -93.5288      12 -93.5286      13 -93.8224      14 -93.8223      15 -93.8223
      16 -93.5535      17 -93.5535      18 -93.5535      19 -93.9555      20 -93.9554
      21 -93.9555      22 -93.8816      23 -93.8815      24 -93.8814      25 -93.0199
      26 -93.0199      27 -93.0199      28 -93.5755      29 -93.5755      30 -93.5755
      31 -94.0187      32 -94.0188      33 -94.0188      34 -93.8346      35 -93.8347
      36 -93.8347      37 -28.5495      38 -28.5497      39 -28.5496      40 -28.4245
      41 -28.4246      42 -28.4245      43 -28.5423      44 -28.5423      45 -28.5423
      46 -28.5174      47 -28.5175      48 -28.5173      49 -28.5747      50 -28.5746
      51 -28.5746      52 -28.3730      53 -28.3729      54 -28.3730      55 -40.5173
      56 -40.9965      57 -40.6834      58 -41.0842      59 -40.9067      60 -40.8969
 
 
 
 E-fermi :   0.4061     XC(G=0):  -8.0427     alpha+bet : -8.1532


 k-point     1 :       0.0000    0.0000    0.0000
  band No.  band energies     occupation 
      1     -41.5352      2.00000
      2     -41.4474      2.00000
      3     -41.3627      2.00000
      4     -41.3580      2.00000
      5     -41.1340      2.00000
      6     -40.9762      2.00000
      7     -21.6782      2.00000
      8     -21.6329      2.00000
      9     -21.6329      2.00000
     10     -21.5599      2.00000
     11     -21.5434      2.00000
     12     -21.5434      2.00000
     13     -21.4743      2.00000
     14     -21.4743      2.00000
     15     -21.4736      2.00000
     16     -21.4736      2.00000
     17     -21.4706      2.00000
     18     -21.4496      2.00000
     19     -21.2388      2.00000
     20     -21.2362      2.00000
     21     -21.2362      2.00000
     22     -21.0939      2.00000
     23     -21.0938      2.00000
     24     -21.0854      2.00000
     25     -13.8379      2.00000
     26     -13.7015      2.00000
     27     -13.6302      2.00000
     28     -13.5300      2.00000
     29     -13.5300      2.00000
     30     -13.4771      2.00000
     31     -13.4771      2.00000
     32     -13.4722      2.00000
     33     -13.4533      2.00000
     34     -13.4533      2.00000
     35     -13.4244      2.00000
     36     -13.4244      2.00000
     37     -13.3751      2.00000
     38     -13.3751      2.00000
     39     -13.3625      2.00000
     40     -13.3501      2.00000
     41     -13.3377      2.00000
     42     -13.3377      2.00000
     43     -13.2712      2.00000
     44     -13.2662      2.00000
     45     -13.2661      2.00000
     46     -13.2342      2.00000
     47     -13.2180      2.00000
     48     -13.1365      2.00000
     49     -13.1365      2.00000
     50     -13.0644      2.00000
     51     -13.0643      2.00000
     52     -13.0299      2.00000
     53     -13.0299      2.00000
     54     -12.9995      2.00000
     55     -12.9403      2.00000
     56     -12.9403      2.00000
     57     -12.9270      2.00000
     58     -12.5989      2.00000
     59     -12.5913      2.00000
     60     -12.5913      2.00000
     61      -3.2594      2.00000
     62      -3.1524      2.00000
     63      -3.0389      2.00000
     64      -3.0389      2.00000
     65      -2.9386      2.00000
     66      -2.8998      2.00000
     67      -2.8998      2.00000
     68      -2.8902      2.00000
     69      -2.8206      2.00000
     70      -2.7996      2.00000
     71      -2.7995      2.00000
     72      -2.7644      2.00000
     73      -2.7644      2.00000
     74      -2.6963      2.00000
     75      -2.6963      2.00000
     76      -2.6897      2.00000
     77      -2.6698      2.00000
     78      -2.6698      2.00000
     79      -2.6412      2.00000
     80      -2.5740      2.00000
     81      -2.5739      2.00000
     82      -2.5335      2.00000
     83      -2.5335      2.00000
     84      -2.4876      2.00000
     85      -2.4876      2.00000
     86      -2.4272      2.00000
     87      -2.4094      2.00000
     88      -2.4094      2.00000
     89      -2.3556      2.00000
     90      -2.3348      2.00000
     91      -2.3299      2.00000
     92      -2.3299      2.00000
     93      -2.2898      2.00000
     94      -2.2456      2.00000
     95      -2.2073      2.00000
     96      -2.2073      2.00000
     97      -2.1798      2.00000
     98      -2.1238      2.00000
     99      -2.1238      2.00000
    100      -2.0723      2.00000
    101      -2.0146      2.00000
    102      -2.0146      2.00000
    103      -1.9293      2.00000
    104      -1.9109      2.00000
    105      -1.8983      2.00000
    106      -1.8983      2.00000
    107      -1.8918      2.00000
    108      -1.8565      2.00000
    109      -1.8565      2.00000
    110      -1.8158      2.00000
    111      -1.7516      2.00000
    112      -1.7516      2.00000
    113      -1.6957      2.00000
    114      -1.6957      2.00000
    115      -1.6788      2.00000
    116      -1.6328      2.00000
    117      -1.6328      2.00000
    118      -1.6235      2.00000
    119      -1.5528      2.00000
    120      -1.5160      2.00000
    121      -1.5160      2.00000
    122      -1.4762      2.00000
    123      -1.4762      2.00000
    124      -1.4595      2.00000
    125      -1.3739      2.00000
    126      -1.3554      2.00000
    127      -1.3554      2.00000
    128      -1.3397      2.00000
    129      -1.2753      2.00000
    130      -1.2690      2.00000
    131      -1.2690      2.00000
    132      -1.2398      2.00000
    133      -1.2398      2.00000
    134      -1.1989      2.00000
    135      -1.1989      2.00000
    136      -1.1522      2.00000
    137      -1.1351      2.00000
    138      -1.1351      2.00000
    139      -1.0904      2.00000
    140      -1.0550      2.00000
    141      -1.0550      2.00000
    142      -1.0324      2.00000
    143      -0.9847      2.00000
    144      -0.9847      2.00000
    145      -0.9688      2.00000
    146      -0.9326      2.00000
    147      -0.9326      2.00000
    148      -0.9053      2.00000
    149      -0.8849      2.00000
    150      -0.8849      2.00000
    151      -0.8486      2.00000
    152      -0.8167      2.00000
    153      -0.7926      2.00000
    154      -0.7926      2.00000
    155      -0.7358      2.00000
    156      -0.7358      2.00000
    157      -0.6787      2.00000
    158      -0.6768      2.00000
    159      -0.6768      2.00000
    160      -0.6497      2.00000
    161      -0.6178      2.00000
    162      -0.6178      2.00000
    163      -0.5791      2.00000
    164      -0.5495      2.00000
    165      -0.5483      2.00000
    166      -0.5483      2.00000
    167      -0.1912      2.00000
    168      -0.1912      2.00000
    169       3.9966      0.00000
    170       4.3114      0.00000
    171       4.3114      0.00000
    172       4.3688      0.00000
    173       4.3757      0.00000
    174       4.3757      0.00000
    175       4.4419      0.00000
    176       4.4419      0.00000
    177       4.5202      0.00000
    178       4.5231      0.00000
    179       4.5231      0.00000
    180       4.7387      0.00000
    181       4.7387      0.00000
    182       4.7741      0.00000
    183       4.8817      0.00000
    184       4.8817      0.00000
    185       4.9044      0.00000
    186       4.9747      0.00000
    187       5.4583      0.00000
    188       5.9957      0.00000
    189       5.9957      0.00000
    190       6.2309      0.00000
    191       6.2310      0.00000
    192       6.3596      0.00000
    193       6.3596      0.00000
    194       6.4148      0.00000
    195       6.4148      0.00000
    196       6.5097      0.00000
    197       6.5097      0.00000
    198       6.5988      0.00000
    199       6.6879      0.00000
    200       6.6879      0.00000
    201       6.7026      0.00000
    202       7.0569      0.00000
    203       7.1517      0.00000
    204       7.2516      0.00000
    205       7.2769      0.00000
    206       7.2770      0.00000
    207       7.3682      0.00000
    208       7.3682      0.00000
    209       7.4297      0.00000
    210       7.5131      0.00000
    211       7.5132      0.00000
    212       7.6017      0.00000
    213       7.6912      0.00000
    214       7.7263      0.00000
    215       7.7780      0.00000
    216       7.7780      0.00000
    217       7.9426      0.00000
    218       7.9426      0.00000
    219       8.0364      0.00000
    220       8.0364      0.00000
    221       8.0515      0.00000
    222       8.2126      0.00000
    223       8.2126      0.00000
    224       8.3376      0.00000
    225       8.3376      0.00000
    226       8.3856      0.00000
    227       8.4936      0.00000
    228       8.4936      0.00000
    229       8.6468      0.00000
    230       8.6758      0.00000
    231       8.6758      0.00000
    232       8.7693      0.00000
    233       8.8686      0.00000
    234       8.8686      0.00000
    235       9.0416      0.00000
    236       9.0416      0.00000
    237       9.0547      0.00000
    238       9.0955      0.00000
    239       9.2067      0.00000
    240       9.2067      0.00000


--------------------------------------------------------------------------------------------------------


 soft charge-density along one line, spin component           1
         0         1         2         3         4         5         6         7         8         9
 total charge-density along one line
 
 pseudopotential strength for first ion, spin component:           1
 47.853  -0.017   0.003   0.006  -0.007   0.000   0.000  -0.000
 -0.017   0.019   0.000   0.000  -0.000   0.000   0.000  -0.000
  0.003   0.000   9.156   0.001  -0.001  -0.001  -0.000   0.000
  0.006   0.000   0.001   9.156  -0.002  -0.000  -0.001   0.000
 -0.007  -0.000  -0.001  -0.002   9.157   0.000   0.000  -0.001
  0.000   0.000  -0.001  -0.000   0.000   0.035   0.000  -0.000
  0.000   0.000  -0.000  -0.001   0.000   0.000   0.035  -0.000
 -0.000  -0.000   0.000   0.000  -0.001  -0.000  -0.000   0.035
 total augmentation occupancy for first ion, spin component:           1
  1.920   0.383  -0.013  -0.028   0.030  -0.015  -0.030   0.036
  0.383   0.317   0.073   0.153  -0.173  -0.029  -0.070   0.059
 -0.013   0.073   1.763  -0.014   0.009  -0.360  -0.034   0.024
 -0.028   0.153  -0.014   1.770   0.024  -0.034  -0.347   0.047
  0.030  -0.173   0.009   0.024   1.754   0.024   0.047  -0.380
 -0.015  -0.029  -0.360  -0.034   0.024   0.105   0.021  -0.016
 -0.030  -0.070  -0.034  -0.347   0.047   0.021   0.100  -0.031
  0.036   0.059   0.024   0.047  -0.380  -0.016  -0.031   0.118


------------------------ aborting loop because EDIFF is reached ----------------------------------------


 


 total charge     
 
# of ion       s       p       d       tot
------------------------------------------
    1        1.593   3.573   0.000   5.166
    2        1.593   3.573   0.000   5.166
    3        1.593   3.573   0.000   5.166
    4        1.592   3.579   0.000   5.171
    5        1.592   3.579   0.000   5.171
    6        1.592   3.579   0.000   5.171
    7        1.591   3.587   0.000   5.178
    8        1.591   3.587   0.000   5.178
    9        1.591   3.587   0.000   5.178
   10        1.593   3.575   0.000   5.168
   11        1.593   3.575   0.000   5.168
   12        1.593   3.575   0.000   5.168
   13        1.593   3.585   0.000   5.178
   14        1.593   3.585   0.000   5.178
   15        1.593   3.585   0.000   5.178
   16        1.590   3.588   0.000   5.178
   17        1.590   3.588   0.000   5.178
   18        1.590   3.588   0.000   5.178
   19        1.592   3.576   0.000   5.169
   20        1.592   3.576   0.000   5.169
   21        1.592   3.576   0.000   5.169
   22        1.593   3.579   0.000   5.172
   23        1.593   3.579   0.000   5.172
   24        1.593   3.579   0.000   5.172
   25        1.588   3.588   0.000   5.176
   26        1.588   3.588   0.000   5.176
   27        1.588   3.588   0.000   5.176
   28        1.590   3.588   0.000   5.179
   29        1.590   3.588   0.000   5.179
   30        1.590   3.588   0.000   5.179
   31        1.596   3.565   0.000   5.160
   32        1.596   3.565   0.000   5.160
   33        1.596   3.565   0.000   5.160
   34        1.593   3.577   0.000   5.170
   35        1.593   3.577   0.000   5.170
   36        1.593   3.577   0.000   5.170
   37        0.056   0.103   0.000   0.159
   38        0.056   0.103   0.000   0.159
   39        0.056   0.103   0.000   0.159
   40        0.060   0.110   0.000   0.170
   41        0.060   0.110   0.000   0.170
   42        0.060   0.110   0.000   0.170
   43        0.057   0.102   0.000   0.159
   44        0.057   0.102   0.000   0.159
   45        0.057   0.102   0.000   0.159
   46        0.057   0.104   0.000   0.161
   47        0.057   0.104   0.000   0.161
   48        0.057   0.104   0.000   0.161
   49        0.060   0.107   0.000   0.167
   50        0.060   0.107   0.000   0.167
   51        0.060   0.107   0.000   0.167
   52        0.059   0.110   0.000   0.168
   53        0.059   0.110   0.000   0.168
   54        0.059   0.110   0.000   0.168
   55        2.122   6.130   0.690   8.942
   56        2.120   6.123   0.676   8.919
   57        2.120   6.123   0.676   8.919
   58        2.120   6.118   0.684   8.922
   59        2.121   6.128   0.685   8.934
   60        2.122   6.126   0.701   8.950
--------------------------------------------------
tot         71.081 167.535   4.111 242.728
 
    CHARGE:  cpu time    0.1205: real time    0.1205
    FORLOC:  cpu time    0.0219: real time    0.0219
    FORNL :  cpu time    0.4801: real time    0.4805
    STRESS:  cpu time    1.4974: real time    1.4975
    FORCOR:  cpu time    0.0767: real time    0.0768
    FORHAR:  cpu time    0.0326: real time    0.0326
    MIXING:  cpu time    0.0037: real time    0.0037
    OFIELD:  cpu time    0.0000: real time    0.0000

  FORCE on cell =-STRESS in cart. coord.  units (eV):
  Direction    XX          YY          ZZ          XY          YZ          ZX
  --------------------------------------------------------------------------------------
  Alpha Z   571.58137   571.58137   571.58137
  Ewald   -4921.92078 -4921.92346 -5324.09852    -0.00221    -0.00167    -0.00061
  Hartree  1855.81213  1855.81308  1606.52106     0.00064    -0.00006     0.00034
  E(xc)   -1246.29563 -1246.29558 -1246.97868     0.00002    -0.00002     0.00002
  Local   -3367.43029 -3367.43344 -2712.54964    -0.00099     0.00316    -0.00152
  n-local  2684.79434  2684.79350  2686.86653    -0.00035     0.00044    -0.00028
  augment  -619.11345  -619.11404  -619.64300    -0.00052     0.00012    -0.00006
  Kinetic  5045.07142  5045.07188  5038.41654     0.00023    -0.00016     0.00030
  Fock        0.00000     0.00000     0.00000     0.00000     0.00000     0.00000
  -------------------------------------------------------------------------------------
  Total       2.49621     2.49622     0.11567     0.00000    -0.00000     0.00000
  in kB       2.89894     2.89895     0.13433     0.00000    -0.00000     0.00000
  external pressure =        1.98 kB  Pullay stress =        0.00 kB


 VOLUME and BASIS-vectors are now :
 -----------------------------------------------------------------------------
  energy-cutoff  :      520.00
  volume of cell :     1379.60
      direct lattice vectors                 reciprocal lattice vectors
    11.334128968  0.000003780  0.000002558     0.088229083  0.050939039 -0.000000003
    -5.667061570  9.815647364 -0.000003655    -0.000000034  0.101878131  0.000000024
     0.000002030 -0.000002865 12.400680362    -0.000000018  0.000000020  0.080640737

  length of vectors
    11.334128968 11.334130757 12.400680362     0.101878147  0.101878131  0.080640737


 FORCES acting on ions
    electron-ion (+dipol)            ewald-force                    non-local-force                 convergence-correction
 -----------------------------------------------------------------------------------------------
   -.811E+02 0.462E+02 0.492E+02   0.815E+02 -.463E+02 -.495E+02   -.416E+00 0.125E+00 0.360E+00   0.466E-03 -.526E-03 0.615E-03
   0.580E+00 -.933E+02 0.492E+02   -.677E+00 0.938E+02 -.495E+02   0.100E+00 -.422E+00 0.360E+00   0.223E-03 0.668E-03 0.615E-03
   0.806E+02 0.472E+02 0.492E+02   -.809E+02 -.475E+02 -.495E+02   0.316E+00 0.298E+00 0.360E+00   -.689E-03 -.142E-03 0.615E-03
   0.661E+02 -.273E+02 -.700E+02   -.667E+02 0.272E+02 0.704E+02   0.672E+00 0.118E+00 -.412E+00   -.576E-03 0.740E-03 -.737E-03
   -.567E+02 -.435E+02 -.700E+02   0.569E+02 0.442E+02 0.704E+02   -.234E+00 -.641E+00 -.412E+00   0.929E-03 0.130E-03 -.737E-03
   -.936E+01 0.709E+02 -.700E+02   0.980E+01 -.714E+02 0.704E+02   -.438E+00 0.523E+00 -.412E+00   -.353E-03 -.870E-03 -.737E-03
   -.533E+02 0.347E+02 0.812E+02   0.535E+02 -.352E+02 -.816E+02   -.252E+00 0.508E+00 0.390E+00   0.880E-04 -.260E-03 0.365E-04
   -.343E+01 -.635E+02 0.812E+02   0.374E+01 0.639E+02 -.816E+02   -.314E+00 -.472E+00 0.390E+00   0.181E-03 0.207E-03 0.365E-04
   0.567E+02 0.288E+02 0.812E+02   -.572E+02 -.287E+02 -.816E+02   0.566E+00 -.354E-01 0.390E+00   -.269E-03 0.534E-04 0.365E-04
   0.536E+02 -.454E+02 -.498E+02   -.538E+02 0.459E+02 0.502E+02   0.139E+00 -.521E+00 -.423E+00   -.413E-03 -.201E-03 -.459E-03
   -.661E+02 -.238E+02 -.498E+02   0.667E+02 0.236E+02 0.502E+02   -.521E+00 0.140E+00 -.423E+00   0.328E-04 0.458E-03 -.459E-03
   0.125E+02 0.692E+02 -.498E+02   -.129E+02 -.695E+02 0.502E+02   0.382E+00 0.381E+00 -.423E+00   0.380E-03 -.257E-03 -.459E-03
   0.625E+02 -.469E+02 -.748E+02   -.630E+02 0.472E+02 0.746E+02   0.472E+00 -.272E+00 0.238E+00   -.406E-03 0.331E-03 -.520E-03
   0.942E+01 0.776E+02 -.748E+02   -.942E+01 -.781E+02 0.746E+02   -.635E-03 0.545E+00 0.238E+00   -.836E-04 -.518E-03 -.520E-03
   -.719E+02 -.306E+02 -.748E+02   0.724E+02 0.309E+02 0.746E+02   -.471E+00 -.273E+00 0.238E+00   0.490E-03 0.187E-03 -.520E-03
   -.652E+02 0.298E+02 -.558E+02   0.655E+02 -.295E+02 0.564E+02   -.301E+00 -.294E+00 -.564E+00   0.607E-03 -.242E-03 0.615E-04
   0.584E+02 0.416E+02 -.558E+02   -.583E+02 -.420E+02 0.564E+02   -.104E+00 0.408E+00 -.564E+00   -.513E-03 -.405E-03 0.615E-04
   0.680E+01 -.714E+02 -.558E+02   -.721E+01 0.715E+02 0.564E+02   0.405E+00 -.114E+00 -.564E+00   -.933E-04 0.647E-03 0.615E-04
   0.652E+02 -.339E+02 0.697E+02   -.656E+02 0.341E+02 -.698E+02   0.341E+00 -.219E+00 0.117E+00   -.195E-03 0.331E-03 0.107E-02
   -.322E+01 0.735E+02 0.697E+02   0.321E+01 -.739E+02 -.698E+02   0.193E-01 0.405E+00 0.117E+00   -.189E-03 -.335E-03 0.107E-02
   -.620E+02 -.395E+02 0.697E+02   0.624E+02 0.397E+02 -.698E+02   -.361E+00 -.186E+00 0.117E+00   0.384E-03 0.391E-05 0.107E-02
   -.638E+02 0.357E+02 -.710E+02   0.640E+02 -.360E+02 0.715E+02   -.186E+00 0.379E+00 -.540E+00   0.886E-03 -.292E-03 -.118E-02
   0.628E+02 0.374E+02 -.710E+02   -.632E+02 -.374E+02 0.715E+02   0.421E+00 -.288E-01 -.540E+00   -.697E-03 -.622E-03 -.118E-02
   0.102E+01 -.731E+02 -.710E+02   -.781E+00 0.734E+02 0.715E+02   -.235E+00 -.350E+00 -.540E+00   -.189E-03 0.914E-03 -.118E-02
   0.538E+02 -.321E+02 -.188E+02   -.549E+02 0.327E+02 0.187E+02   0.113E+01 -.640E+00 0.534E-01   0.834E-03 -.781E-03 -.200E-04
   0.886E+00 0.626E+02 -.188E+02   -.874E+00 -.639E+02 0.187E+02   -.110E-01 0.130E+01 0.534E-01   0.260E-03 0.111E-02 -.200E-04
   -.547E+02 -.305E+02 -.187E+02   0.558E+02 0.312E+02 0.187E+02   -.112E+01 -.659E+00 0.534E-01   -.109E-02 -.332E-03 -.200E-04
   0.691E+02 -.294E+02 0.530E+02   -.695E+02 0.296E+02 -.528E+02   0.382E+00 -.148E+00 -.143E+00   -.430E-03 0.202E-04 0.580E-03
   -.600E+02 -.452E+02 0.530E+02   0.604E+02 0.454E+02 -.528E+02   -.319E+00 -.257E+00 -.143E+00   0.233E-03 0.362E-03 0.581E-03
   -.909E+01 0.746E+02 0.529E+02   0.916E+01 -.750E+02 -.528E+02   -.627E-01 0.405E+00 -.143E+00   0.197E-03 -.383E-03 0.581E-03
   -.148E+03 0.865E+02 0.935E+01   0.150E+03 -.869E+02 -.943E+01   -.140E+01 0.442E+00 0.866E-01   0.195E-03 -.601E-03 0.129E-03
   -.824E+00 -.172E+03 0.935E+01   0.511E+00 0.173E+03 -.943E+01   0.318E+00 -.144E+01 0.866E-01   0.423E-03 0.470E-03 0.129E-03
   0.149E+03 0.850E+02 0.935E+01   -.150E+03 -.860E+02 -.943E+01   0.108E+01 0.993E+00 0.866E-01   -.617E-03 0.131E-03 0.129E-03
   0.563E+02 -.414E+02 0.748E+02   -.564E+02 0.419E+02 -.756E+02   0.842E-01 -.453E+00 0.837E+00   -.503E-03 -.677E-04 0.278E-03
   -.640E+02 -.280E+02 0.748E+02   0.645E+02 0.279E+02 -.756E+02   -.434E+00 0.154E+00 0.837E+00   0.193E-03 0.470E-03 0.278E-03
   0.773E+01 0.695E+02 0.748E+02   -.809E+01 -.698E+02 -.756E+02   0.350E+00 0.299E+00 0.837E+00   0.310E-03 -.402E-03 0.278E-03
   0.663E+01 -.140E+01 0.118E+01   -.605E+01 0.177E+01 -.144E+01   -.579E+00 -.367E+00 0.249E+00   0.117E-04 -.165E-04 0.208E-04
   -.210E+01 0.644E+01 0.118E+01   0.149E+01 -.612E+01 -.144E+01   0.607E+00 -.318E+00 0.249E+00   0.842E-05 0.183E-04 0.208E-04
   -.453E+01 -.504E+01 0.118E+01   0.456E+01 0.436E+01 -.144E+01   -.282E-01 0.685E+00 0.249E+00   -.201E-04 -.187E-05 0.208E-04
   0.388E+00 0.333E+01 -.368E+00   0.267E+00 -.329E+01 0.229E+00   -.657E+00 -.405E-01 0.143E+00   -.111E-04 0.960E-05 -.828E-05
   -.308E+01 -.133E+01 -.368E+00   0.271E+01 0.187E+01 0.229E+00   0.364E+00 -.549E+00 0.143E+00   -.280E-05 -.144E-04 -.827E-05
   0.269E+01 -.200E+01 -.368E+00   -.298E+01 0.141E+01 0.229E+00   0.294E+00 0.589E+00 0.143E+00   0.138E-04 0.478E-05 -.827E-05
   0.827E-01 0.150E+01 0.485E+00   -.641E+00 -.162E+01 -.491E+00   0.565E+00 0.119E+00 0.949E-02   0.558E-05 0.130E-04 -.570E-05
   -.134E+01 -.681E+00 0.485E+00   0.173E+01 0.257E+00 -.491E+00   -.385E+00 0.430E+00 0.949E-02   -.141E-04 -.169E-05 -.570E-05
   0.126E+01 -.824E+00 0.485E+00   -.109E+01 0.137E+01 -.491E+00   -.179E+00 -.549E+00 0.949E-02   0.850E-05 -.113E-04 -.570E-05
   0.473E+01 0.487E+01 -.116E+01   -.422E+01 -.498E+01 0.120E+01   -.511E+00 0.112E+00 -.414E-01   -.586E-05 0.211E-04 -.139E-04
   -.658E+01 0.166E+01 -.116E+01   0.642E+01 -.116E+01 0.120E+01   0.159E+00 -.498E+00 -.414E-01   -.154E-04 -.156E-04 -.139E-04
   0.185E+01 -.653E+01 -.116E+01   -.220E+01 0.614E+01 0.120E+01   0.352E+00 0.387E+00 -.414E-01   0.212E-04 -.548E-05 -.139E-04
   -.341E+00 0.702E+00 0.176E+01   -.470E-01 -.484E+00 -.140E+01   0.387E+00 -.225E+00 -.364E+00   0.145E-04 -.411E-05 0.124E-04
   -.437E+00 -.647E+00 0.176E+01   0.443E+00 0.201E+00 -.140E+01   0.170E-02 0.447E+00 -.364E+00   -.368E-05 0.146E-04 0.124E-04
   0.778E+00 -.550E-01 0.176E+01   -.396E+00 0.283E+00 -.140E+01   -.388E+00 -.222E+00 -.364E+00   -.108E-04 -.105E-04 0.124E-04
   -.287E+01 0.460E+01 -.250E+01   0.249E+01 -.472E+01 0.265E+01   0.386E+00 0.112E+00 -.149E+00   0.363E-05 0.210E-04 -.182E-04
   -.255E+01 -.479E+01 -.250E+01   0.284E+01 0.451E+01 0.265E+01   -.290E+00 0.278E+00 -.149E+00   -.200E-04 -.736E-05 -.182E-04
   0.542E+01 0.184E+00 -.250E+01   -.533E+01 0.204E+00 0.265E+01   -.964E-01 -.390E+00 -.149E+00   0.164E-04 -.136E-04 -.182E-04
   -.145E-02 -.685E-03 -.931E+01   -.199E-03 -.264E-03 0.859E+01   0.117E-06 -.165E-06 0.713E+00   0.631E-07 -.601E-07 0.185E-03
   0.610E-03 -.106E-02 0.180E+00   0.293E-03 -.381E-03 0.271E+00   -.739E-07 0.104E-06 -.451E+00   0.385E-07 -.670E-07 -.452E-03
   -.185E-03 -.752E-03 -.187E+01   -.348E-03 0.501E-04 0.205E+01   -.272E-07 0.383E-07 -.166E+00   0.261E-08 0.110E-06 0.290E-03
   0.735E-03 -.144E-02 0.132E+03   0.409E-03 -.325E-03 -.132E+03   -.284E-07 0.401E-07 -.173E+00   0.346E-07 -.462E-07 0.196E-03
   -.376E-03 0.177E-02 -.122E+01   -.397E-03 0.519E-03 0.968E+00   0.386E-07 -.545E-07 0.236E+00   -.294E-08 0.325E-07 -.445E-03
   -.149E-02 -.251E-03 -.108E+03   0.542E-03 -.606E-04 0.108E+03   -.377E-07 0.532E-07 -.230E+00   0.742E-07 -.303E-07 -.121E-02
 -----------------------------------------------------------------------------------------------
   0.714E-02 -.126E-01 0.531E+00   0.496E-13 -.868E-13 0.000E+00   -.869E-07 0.123E-06 -.531E+00   0.331E-06 0.551E-06 -.191E-02
 
 
 POSITION                                       TOTAL-FORCE (eV/Angst)
 -----------------------------------------------------------------------------------
     -3.65750      8.65102      4.72916        -0.005564     -0.000388      0.003619
      0.00382      2.32264      4.72916         0.003117     -0.004624      0.003619
      3.65369      8.65763      4.72917         0.002446      0.005012      0.003619
      9.39992      1.13793      7.46674         0.003610     -0.000329     -0.003045
      1.95258      1.10612      7.46674        -0.002089     -0.002962     -0.003045
      5.64870      7.57161      7.46674        -0.001520      0.003290     -0.003045
     -3.94071      8.57779     10.94929        -0.005001      0.005271     -0.001783
      0.20885      2.11399     10.94929        -0.002064     -0.006966     -0.001783
      3.73188      8.93952     10.94928         0.007065      0.001695     -0.001783
      9.32494      1.05002      1.51766         0.005320     -0.000443     -0.000787
      1.91393      1.21500      1.51767        -0.003043     -0.004386     -0.000787
      5.76233      7.55064      1.51766        -0.002277      0.004828     -0.000787
     -1.98696      7.66425      1.70801         0.005994      0.002150      0.002115
      0.02312      4.26276      1.70801        -0.004859      0.004116      0.002115
      1.96385      7.70428      1.70801        -0.001135     -0.006266      0.002115
      7.66201      2.33733     10.66496        -0.009188      0.004067     -0.002416
      3.86025      2.01149     10.66496         0.008116      0.005924     -0.002416
      5.47895      5.46684     10.66496         0.001072     -0.009991     -0.002416
     -1.90063      7.83632      7.89256         0.003498     -0.003749      0.007811
     -0.16908      4.25149      7.89256         0.001497      0.004904      0.007811
      2.06971      7.54348      7.89256        -0.004996     -0.001155      0.007811
      7.66427      2.21979      4.40292        -0.000180      0.002659      0.000256
      3.75733      2.06830      4.40292         0.002393     -0.001174      0.000256
      5.57960      5.52756      4.40292        -0.002213     -0.001485      0.000256
      2.09066      5.26743      4.71198        -0.002851     -0.000214     -0.000108
      0.06001      8.99250      4.71198         0.001611     -0.002362     -0.000108
     -2.15067      5.37136      4.71198         0.001240      0.002576     -0.000108
      3.75542      4.38406      7.71115        -0.001099     -0.003577     -0.002229
      7.58605      4.37133      7.71114        -0.002548      0.002741     -0.002229
      5.65972      1.06026      7.71116         0.003648      0.000836     -0.002229
      1.69031      5.49177     11.00668        -0.003082     -0.003335      0.005074
      0.06591      8.53361     11.00668         0.004429     -0.001001      0.005074
     -1.75620      5.60592     11.00669        -0.001347      0.004336      0.005074
      3.66999      4.29233      1.56958         0.006098     -0.002643     -0.001825
      7.54934      4.49118      1.56958        -0.005338     -0.003959     -0.001825
      5.78187      1.03214      1.56958        -0.000760      0.006602     -0.001825
      7.67316      0.41674     12.13703        -0.000927      0.001493     -0.006240
      7.13666      6.43679     12.13702        -0.000829     -0.001549     -0.006240
      2.19140      2.96213     12.13703         0.001757      0.000056     -0.006240
      4.04211      0.12167      6.13556        -0.002707      0.003268      0.003712
      9.20770      3.43974      6.13555        -0.001477     -0.003978      0.003712
      3.75139      6.25424      6.13555         0.004184      0.000710      0.003712
      1.66304      9.60257      6.43906         0.006329     -0.001479      0.003971
     -3.48051      6.45460      6.43905        -0.001883      0.006220      0.003971
      1.81748      3.57414      6.43906        -0.004445     -0.004741      0.003971
     -1.61692      9.72402      3.00524         0.004069     -0.001642     -0.001812
     -1.94572      3.55334      3.00524        -0.000613      0.004345     -0.001812
      3.56264      6.35393      3.00525        -0.003457     -0.002703     -0.001812
      3.02318      0.09644      9.47222        -0.001975     -0.007577     -0.002143
      9.73904      2.56994      9.47222         0.007549      0.002078     -0.002143
      4.23899      7.14928      9.47222        -0.005574      0.005499     -0.002143
      1.82020      9.75512      3.17849         0.002883     -0.000736     -0.002752
     -3.69121      6.51443      3.17848        -0.000804      0.002864     -0.002752
      1.87101      3.36174      3.17849        -0.002079     -0.002128     -0.002752
      0.00000      0.00000      0.14613        -0.000000      0.000000     -0.010873
      0.00000      0.00000      6.02493        -0.000000      0.000000     -0.001391
      5.66707      3.27188      9.18501         0.000000     -0.000000      0.014154
      0.00000      6.54377      9.14466         0.000000     -0.000000      0.003450
      5.66707      3.27188      2.98643        -0.000000      0.000000     -0.013951
      0.00000      6.54377      0.47790         0.000000     -0.000000      0.004356
 -----------------------------------------------------------------------------------
    total drift:                                0.007138     -0.012597     -0.001266


--------------------------------------------------------------------------------------------------------



  FREE ENERGIE OF THE ION-ELECTRON SYSTEM (eV)
  ---------------------------------------------------
  free  energy   TOTEN  =      -257.76685295 eV

  energy  without entropy=     -257.76685295  energy(sigma->0) =     -257.76685295
 
 d Force = 0.2273019E-03[-0.388E-04, 0.493E-03]  d Energy = 0.2274532E-03-0.151E-06
 d Force = 0.2835807E+01[ 0.283E+01, 0.284E+01]  d Ewald  = 0.2835808E+01-0.421E-06


--------------------------------------------------------------------------------------------------------


    POTLOK:  cpu time    0.0720: real time    0.0720


--------------------------------------------------------------------------------------------------------




--------------------------------------------------------------------------------------------------------


    WAVPRE:  cpu time    0.0316: real time    0.0341
    FEWALD:  cpu time    0.0013: real time    0.0013
    ORTHCH:  cpu time    0.2361: real time    0.2361
     LOOP+:  cpu time   13.7240: real time   13.7487


--------------------------------------- Iteration      8(   1)  ---------------------------------------


    POTLOK:  cpu time    0.0671: real time    0.0682
    SETDIJ:  cpu time    0.0054: real time    0.0054
     EDDAV:  cpu time    1.4481: real time    1.4488
       DOS:  cpu time    0.0008: real time    0.0009
    CHARGE:  cpu time    0.1225: real time    0.1225
    MIXING:  cpu time    0.0029: real time    0.0029
    --------------------------------------------
      LOOP:  cpu time    1.6470: real time    1.6488

 eigenvalue-minimisations  :   480
 total energy-change (2. order) : 0.3101017E-05  (-0.4886871E-02)
 number of electron     335.9999972 magnetization 
 augmentation part      -21.1935632 magnetization 

 Broyden mixing:
  rms(total) = 0.39201E-02    rms(broyden)= 0.39196E-02
  rms(prec ) = 0.45261E-02
  weight for this iteration     100.00

 Free energy of the ion-electron system (eV)
  ---------------------------------------------------
  alpha Z        PSCENC =       571.58137139
  Ewald energy   TEWEN  =    -15167.71272465
  -Hartree energ DENC   =     -5318.27262827
  -exchange      EXHF   =         0.00000000
  -V(xc)+E(xc)   XCENC  =       919.12126795
  PAW double counting   =     11941.78262713   -11736.10276852
  entropy T*S    EENTRO =        -0.00000000
  eigenvalues    EBANDS =     -2590.96192212
  atomic energy  EATOM  =     21122.79792691
  Solvation  Ediel_sol  =         0.00000000
  ---------------------------------------------------
  free energy    TOTEN  =      -257.76685019 eV

  energy without entropy =     -257.76685019  energy(sigma->0) =     -257.76685019


--------------------------------------------------------------------------------------------------------




--------------------------------------- Iteration      8(   2)  ---------------------------------------


    POTLOK:  cpu time    0.0642: real time    0.0676
    SETDIJ:  cpu time    0.0060: real time    0.0060
     EDDAV:  cpu time    1.7561: real time    1.7564
       DOS:  cpu time    0.0009: real time    0.0009
    CHARGE:  cpu time    0.1222: real time    0.1222
    MIXING:  cpu time    0.0035: real time    0.0035
    --------------------------------------------
      LOOP:  cpu time    1.9528: real time    1.9565

 eigenvalue-minimisations  :   600
 total energy-change (2. order) :-0.2151243E-03  (-0.2327851E-03)
 number of electron     335.9999972 magnetization 
 augmentation part      -21.1935860 magnetization 

 Broyden mixing:
  rms(total) = 0.13856E-02    rms(broyden)= 0.13840E-02
  rms(prec ) = 0.18307E-02
  weight for this iteration     100.00

 eigenvalues of (default mixing * dielectric matrix)
  average eigenvalue GAMMA=   0.8775
  0.8775

 Free energy of the ion-electron system (eV)
  ---------------------------------------------------
  alpha Z        PSCENC =       571.58137139
  Ewald energy   TEWEN  =    -15167.71272465
  -Hartree energ DENC   =     -5318.27637298
  -exchange      EXHF   =         0.00000000
  -V(xc)+E(xc)   XCENC  =       919.12125760
  PAW double counting   =     11941.80241873   -11736.12234812
  entropy T*S    EENTRO =        -0.00000000
  eigenvalues    EBANDS =     -2590.95859418
  atomic energy  EATOM  =     21122.79792691
  Solvation  Ediel_sol  =         0.00000000
  ---------------------------------------------------
  free energy    TOTEN  =      -257.76706531 eV

  energy without entropy =     -257.76706531  energy(sigma->0) =     -257.76706531


--------------------------------------------------------------------------------------------------------




--------------------------------------- Iteration      8(   3)  ---------------------------------------


    POTLOK:  cpu time    0.0648: real time    0.0683
    SETDIJ:  cpu time    0.0057: real time    0.0057
     EDDAV:  cpu time    2.0369: real time    2.0372
       DOS:  cpu time    0.0002: real time    0.0002
    CHARGE:  cpu time    0.1218: real time    0.1218
    MIXING:  cpu time    0.0019: real time    0.0019
    --------------------------------------------
      LOOP:  cpu time    2.2313: real time    2.2352

 eigenvalue-minimisations  :   720
 total energy-change (2. order) : 0.9743089E-06  (-0.3620357E-05)
 number of electron     335.9999972 magnetization 
 augmentation part      -21.1936422 magnetization 

 Broyden mixing:
  rms(total) = 0.11687E-02    rms(broyden)= 0.11686E-02
  rms(prec ) = 0.15339E-02
  weight for this iteration     100.00

 eigenvalues of (default mixing * dielectric matrix)
  average eigenvalue GAMMA=   1.5388
  1.0970  1.9807

 Free energy of the ion-electron system (eV)
  ---------------------------------------------------
  alpha Z        PSCENC =       571.58137139
  Ewald energy   TEWEN  =    -15167.71272465
  -Hartree energ DENC   =     -5318.27928329
  -exchange      EXHF   =         0.00000000
  -V(xc)+E(xc)   XCENC  =       919.12129102
  PAW double counting   =     11941.81720693   -11736.13688160
  entropy T*S    EENTRO =        -0.00000000
  eigenvalues    EBANDS =     -2590.95597104
  atomic energy  EATOM  =     21122.79792691
  Solvation  Ediel_sol  =         0.00000000
  ---------------------------------------------------
  free energy    TOTEN  =      -257.76706434 eV

  energy without entropy =     -257.76706434  energy(sigma->0) =     -257.76706434


--------------------------------------------------------------------------------------------------------




--------------------------------------- Iteration      8(   4)  ---------------------------------------


    POTLOK:  cpu time    0.0638: real time    0.0673
    SETDIJ:  cpu time    0.0055: real time    0.0055
     EDDAV:  cpu time    1.3356: real time    1.3358
       DOS:  cpu time    0.0002: real time    0.0002
    CHARGE:  cpu time    0.1219: real time    0.1219
    MIXING:  cpu time    0.0019: real time    0.0019
    --------------------------------------------
      LOOP:  cpu time    1.5288: real time    1.5325

 eigenvalue-minimisations  :   420
 total energy-change (2. order) : 0.4839610E-05  (-0.1430513E-05)
 number of electron     335.9999972 magnetization 
 augmentation part      -21.1936501 magnetization 

 Broyden mixing:
  rms(total) = 0.48040E-03    rms(broyden)= 0.48039E-03
  rms(prec ) = 0.57358E-03
  weight for this iteration     100.00

 eigenvalues of (default mixing * dielectric matrix)
  average eigenvalue GAMMA=   1.7601
  3.3515  0.9645  0.9645

 Free energy of the ion-electron system (eV)
  ---------------------------------------------------
  alpha Z        PSCENC =       571.58137139
  Ewald energy   TEWEN  =    -15167.71272465
  -Hartree energ DENC   =     -5318.28668802
  -exchange      EXHF   =         0.00000000
  -V(xc)+E(xc)   XCENC  =       919.12142689
  PAW double counting   =     11941.85021753   -11736.16905118
  entropy T*S    EENTRO =        -0.00000000
  eigenvalues    EBANDS =     -2590.94953836
  atomic energy  EATOM  =     21122.79792691
  Solvation  Ediel_sol  =         0.00000000
  ---------------------------------------------------
  free energy    TOTEN  =      -257.76705950 eV

  energy without entropy =     -257.76705950  energy(sigma->0) =     -257.76705950


--------------------------------------------------------------------------------------------------------




--------------------------------------- Iteration      8(   5)  ---------------------------------------


    POTLOK:  cpu time    0.0671: real time    0.0675
    SETDIJ:  cpu time    0.0054: real time    0.0054
     EDDAV:  cpu time    1.3343: real time    1.3346
       DOS:  cpu time    0.0002: real time    0.0002
    CHARGE:  cpu time    0.1219: real time    0.1219
    MIXING:  cpu time    0.0020: real time    0.0020
    --------------------------------------------
      LOOP:  cpu time    1.5309: real time    1.5316

 eigenvalue-minimisations  :   420
 total energy-change (2. order) :-0.1146633E-05  (-0.1061567E-05)
 number of electron     335.9999972 magnetization 
 augmentation part      -21.1936506 magnetization 

 Broyden mixing:
  rms(total) = 0.40686E-03    rms(broyden)= 0.40686E-03
  rms(prec ) = 0.48436E-03
  weight for this iteration     100.00

 eigenvalues of (default mixing * dielectric matrix)
  average eigenvalue GAMMA=   1.5877
  3.4848  1.0316  1.0316  0.8029

 Free energy of the ion-electron system (eV)
  ---------------------------------------------------
  alpha Z        PSCENC =       571.58137139
  Ewald energy   TEWEN  =    -15167.71272465
  -Hartree energ DENC   =     -5318.29017233
  -exchange      EXHF   =         0.00000000
  -V(xc)+E(xc)   XCENC  =       919.12151270
  PAW double counting   =     11941.87013289   -11736.18854721
  entropy T*S    EENTRO =        -0.00000000
  eigenvalues    EBANDS =     -2590.94656034
  atomic energy  EATOM  =     21122.79792691
  Solvation  Ediel_sol  =         0.00000000
  ---------------------------------------------------
  free energy    TOTEN  =      -257.76706064 eV

  energy without entropy =     -257.76706064  energy(sigma->0) =     -257.76706064


--------------------------------------------------------------------------------------------------------




--------------------------------------- Iteration      8(   6)  ---------------------------------------


    POTLOK:  cpu time    0.0641: real time    0.0713
    SETDIJ:  cpu time    0.0055: real time    0.0055
     EDDAV:  cpu time    1.3360: real time    1.3362
       DOS:  cpu time    0.0002: real time    0.0001
    --------------------------------------------
      LOOP:  cpu time    1.4057: real time    1.4131

 eigenvalue-minimisations  :   420
 total energy-change (2. order) : 0.7159542E-07  (-0.9137664E-07)
 number of electron     335.9999972 magnetization 
 augmentation part      -21.1936506 magnetization 

 Free energy of the ion-electron system (eV)
  ---------------------------------------------------
  alpha Z        PSCENC =       571.58137139
  Ewald energy   TEWEN  =    -15167.71272465
  -Hartree energ DENC   =     -5318.29029637
  -exchange      EXHF   =         0.00000000
  -V(xc)+E(xc)   XCENC  =       919.12151899
  PAW double counting   =     11941.87513034   -11736.19350615
  entropy T*S    EENTRO =        -0.00000000
  eigenvalues    EBANDS =     -2590.94648103
  atomic energy  EATOM  =     21122.79792691
  Solvation  Ediel_sol  =         0.00000000
  ---------------------------------------------------
  free energy    TOTEN  =      -257.76706057 eV

  energy without entropy =     -257.76706057  energy(sigma->0) =     -257.76706057


--------------------------------------------------------------------------------------------------------




 average (electrostatic) potential at core
  the test charge radii are     0.9406  0.9748  1.1987
  (the norm of the test charge is              1.0000)
       1 -93.8903       2 -93.8904       3 -93.8903       4 -93.8908       5 -93.8907
       6 -93.8907       7 -93.4914       8 -93.4913       9 -93.4913      10 -93.5284
      11 -93.5285      12 -93.5283      13 -93.8239      14 -93.8239      15 -93.8239
      16 -93.5553      17 -93.5553      18 -93.5553      19 -93.9561      20 -93.9559
      21 -93.9560      22 -93.8793      23 -93.8792      24 -93.8791      25 -93.0178
      26 -93.0178      27 -93.0178      28 -93.5725      29 -93.5725      30 -93.5725
      31 -94.0180      32 -94.0181      33 -94.0181      34 -93.8360      35 -93.8361
      36 -93.8361      37 -28.5505      38 -28.5507      39 -28.5506      40 -28.4233
      41 -28.4233      42 -28.4233      43 -28.5408      44 -28.5407      45 -28.5407
      46 -28.5164      47 -28.5165      48 -28.5163      49 -28.5756      50 -28.5755
      51 -28.5754      52 -28.3728      53 -28.3727      54 -28.3728      55 -40.5172
      56 -40.9972      57 -40.6818      58 -41.0839      59 -40.9073      60 -40.8967
 
 
 
 E-fermi :   0.4064     XC(G=0):  -8.0426     alpha+bet : -8.1532


 k-point     1 :       0.0000    0.0000    0.0000
  band No.  band energies     occupation 
      1     -41.5349      2.00000
      2     -41.4481      2.00000
      3     -41.3632      2.00000
      4     -41.3578      2.00000
      5     -41.1326      2.00000
      6     -40.9761      2.00000
      7     -21.6779      2.00000
      8     -21.6326      2.00000
      9     -21.6326      2.00000
     10     -21.5608      2.00000
     11     -21.5441      2.00000
     12     -21.5441      2.00000
     13     -21.4744      2.00000
     14     -21.4744      2.00000
     15     -21.4739      2.00000
     16     -21.4739      2.00000
     17     -21.4711      2.00000
     18     -21.4496      2.00000
     19     -21.2375      2.00000
     20     -21.2349      2.00000
     21     -21.2349      2.00000
     22     -21.0941      2.00000
     23     -21.0940      2.00000
     24     -21.0855      2.00000
     25     -13.8379      2.00000
     26     -13.7010      2.00000
     27     -13.6306      2.00000
     28     -13.5300      2.00000
     29     -13.5300      2.00000
     30     -13.4765      2.00000
     31     -13.4765      2.00000
     32     -13.4726      2.00000
     33     -13.4535      2.00000
     34     -13.4535      2.00000
     35     -13.4242      2.00000
     36     -13.4242      2.00000
     37     -13.3760      2.00000
     38     -13.3760      2.00000
     39     -13.3626      2.00000
     40     -13.3502      2.00000
     41     -13.3382      2.00000
     42     -13.3381      2.00000
     43     -13.2717      2.00000
     44     -13.2671      2.00000
     45     -13.2671      2.00000
     46     -13.2349      2.00000
     47     -13.2184      2.00000
     48     -13.1358      2.00000
     49     -13.1358      2.00000
     50     -13.0647      2.00000
     51     -13.0646      2.00000
     52     -13.0302      2.00000
     53     -13.0302      2.00000
     54     -12.9991      2.00000
     55     -12.9416      2.00000
     56     -12.9415      2.00000
     57     -12.9280      2.00000
     58     -12.5967      2.00000
     59     -12.5890      2.00000
     60     -12.5890      2.00000
     61      -3.2595      2.00000
     62      -3.1522      2.00000
     63      -3.0394      2.00000
     64      -3.0394      2.00000
     65      -2.9383      2.00000
     66      -2.8997      2.00000
     67      -2.8997      2.00000
     68      -2.8905      2.00000
     69      -2.8200      2.00000
     70      -2.7996      2.00000
     71      -2.7996      2.00000
     72      -2.7650      2.00000
     73      -2.7649      2.00000
     74      -2.6961      2.00000
     75      -2.6961      2.00000
     76      -2.6899      2.00000
     77      -2.6698      2.00000
     78      -2.6698      2.00000
     79      -2.6411      2.00000
     80      -2.5735      2.00000
     81      -2.5735      2.00000
     82      -2.5330      2.00000
     83      -2.5330      2.00000
     84      -2.4878      2.00000
     85      -2.4878      2.00000
     86      -2.4277      2.00000
     87      -2.4097      2.00000
     88      -2.4097      2.00000
     89      -2.3559      2.00000
     90      -2.3356      2.00000
     91      -2.3301      2.00000
     92      -2.3301      2.00000
     93      -2.2899      2.00000
     94      -2.2461      2.00000
     95      -2.2077      2.00000
     96      -2.2076      2.00000
     97      -2.1796      2.00000
     98      -2.1243      2.00000
     99      -2.1243      2.00000
    100      -2.0727      2.00000
    101      -2.0152      2.00000
    102      -2.0151      2.00000
    103      -1.9294      2.00000
    104      -1.9115      2.00000
    105      -1.8982      2.00000
    106      -1.8982      2.00000
    107      -1.8927      2.00000
    108      -1.8565      2.00000
    109      -1.8565      2.00000
    110      -1.8155      2.00000
    111      -1.7519      2.00000
    112      -1.7519      2.00000
    113      -1.6958      2.00000
    114      -1.6958      2.00000
    115      -1.6795      2.00000
    116      -1.6330      2.00000
    117      -1.6330      2.00000
    118      -1.6241      2.00000
    119      -1.5524      2.00000
    120      -1.5163      2.00000
    121      -1.5162      2.00000
    122      -1.4763      2.00000
    123      -1.4763      2.00000
    124      -1.4593      2.00000
    125      -1.3743      2.00000
    126      -1.3561      2.00000
    127      -1.3561      2.00000
    128      -1.3402      2.00000
    129      -1.2750      2.00000
    130      -1.2693      2.00000
    131      -1.2692      2.00000
    132      -1.2403      2.00000
    133      -1.2402      2.00000
    134      -1.1991      2.00000
    135      -1.1991      2.00000
    136      -1.1524      2.00000
    137      -1.1354      2.00000
    138      -1.1354      2.00000
    139      -1.0900      2.00000
    140      -1.0551      2.00000
    141      -1.0551      2.00000
    142      -1.0324      2.00000
    143      -0.9849      2.00000
    144      -0.9848      2.00000
    145      -0.9685      2.00000
    146      -0.9319      2.00000
    147      -0.9319      2.00000
    148      -0.9053      2.00000
    149      -0.8851      2.00000
    150      -0.8851      2.00000
    151      -0.8485      2.00000
    152      -0.8159      2.00000
    153      -0.7921      2.00000
    154      -0.7921      2.00000
    155      -0.7352      2.00000
    156      -0.7352      2.00000
    157      -0.6774      2.00000
    158      -0.6769      2.00000
    159      -0.6768      2.00000
    160      -0.6489      2.00000
    161      -0.6172      2.00000
    162      -0.6172      2.00000
    163      -0.5796      2.00000
    164      -0.5498      2.00000
    165      -0.5497      2.00000
    166      -0.5496      2.00000
    167      -0.1890      2.00000
    168      -0.1890      2.00000
    169       3.9970      0.00000
    170       4.3116      0.00000
    171       4.3116      0.00000
    172       4.3680      0.00000
    173       4.3756      0.00000
    174       4.3756      0.00000
    175       4.4417      0.00000
    176       4.4417      0.00000
    177       4.5196      0.00000
    178       4.5231      0.00000
    179       4.5231      0.00000
    180       4.7394      0.00000
    181       4.7395      0.00000
    182       4.7749      0.00000
    183       4.8815      0.00000
    184       4.8815      0.00000
    185       4.9041      0.00000
    186       4.9744      0.00000
    187       5.4586      0.00000
    188       5.9952      0.00000
    189       5.9952      0.00000
    190       6.2309      0.00000
    191       6.2309      0.00000
    192       6.3591      0.00000
    193       6.3591      0.00000
    194       6.4145      0.00000
    195       6.4146      0.00000
    196       6.5110      0.00000
    197       6.5110      0.00000
    198       6.6000      0.00000
    199       6.6882      0.00000
    200       6.6882      0.00000
    201       6.7026      0.00000
    202       7.0564      0.00000
    203       7.1511      0.00000
    204       7.2516      0.00000
    205       7.2776      0.00000
    206       7.2776      0.00000
    207       7.3686      0.00000
    208       7.3686      0.00000
    209       7.4291      0.00000
    210       7.5126      0.00000
    211       7.5126      0.00000
    212       7.6017      0.00000
    213       7.6909      0.00000
    214       7.7264      0.00000
    215       7.7783      0.00000
    216       7.7783      0.00000
    217       7.9439      0.00000
    218       7.9439      0.00000
    219       8.0361      0.00000
    220       8.0362      0.00000
    221       8.0521      0.00000
    222       8.2131      0.00000
    223       8.2131      0.00000
    224       8.3385      0.00000
    225       8.3386      0.00000
    226       8.3857      0.00000
    227       8.4939      0.00000
    228       8.4939      0.00000
    229       8.6467      0.00000
    230       8.6759      0.00000
    231       8.6760      0.00000
    232       8.7695      0.00000
    233       8.8687      0.00000
    234       8.8687      0.00000
    235       9.0411      0.00000
    236       9.0411      0.00000
    237       9.0542      0.00000
    238       9.0954      0.00000
    239       9.2069      0.00000
    240       9.2069      0.00000


--------------------------------------------------------------------------------------------------------


 soft charge-density along one line, spin component           1
         0         1         2         3         4         5         6         7         8         9
 total charge-density along one line
 
 pseudopotential strength for first ion, spin component:           1
 47.853  -0.017   0.003   0.006  -0.007   0.000   0.000  -0.000
 -0.017   0.019   0.000   0.000  -0.000   0.000   0.000  -0.000
  0.003   0.000   9.156   0.001  -0.001  -0.001  -0.000   0.000
  0.006   0.000   0.001   9.156  -0.002  -0.000  -0.001   0.000
 -0.007  -0.000  -0.001  -0.002   9.157   0.000   0.000  -0.001
  0.000   0.000  -0.001  -0.000   0.000   0.035   0.000  -0.000
  0.000   0.000  -0.000  -0.001   0.000   0.000   0.035  -0.000
 -0.000  -0.000   0.000   0.000  -0.001  -0.000  -0.000   0.035
 total augmentation occupancy for first ion, spin component:           1
  1.920   0.383  -0.013  -0.028   0.030  -0.015  -0.030   0.036
  0.383   0.317   0.073   0.153  -0.173  -0.029  -0.070   0.059
 -0.013   0.073   1.763  -0.014   0.009  -0.360  -0.034   0.024
 -0.028   0.153  -0.014   1.770   0.024  -0.034  -0.347   0.047
  0.030  -0.173   0.009   0.024   1.754   0.024   0.047  -0.380
 -0.015  -0.029  -0.360  -0.034   0.024   0.105   0.021  -0.016
 -0.030  -0.070  -0.034  -0.347   0.047   0.021   0.100  -0.031
  0.036   0.059   0.024   0.047  -0.380  -0.016  -0.031   0.118


------------------------ aborting loop because EDIFF is reached ----------------------------------------


 


 total charge     
 
# of ion       s       p       d       tot
------------------------------------------
    1        1.593   3.573   0.000   5.166
    2        1.593   3.573   0.000   5.166
    3        1.593   3.573   0.000   5.166
    4        1.592   3.579   0.000   5.171
    5        1.592   3.579   0.000   5.171
    6        1.592   3.579   0.000   5.171
    7        1.591   3.588   0.000   5.179
    8        1.591   3.588   0.000   5.179
    9        1.591   3.588   0.000   5.179
   10        1.593   3.575   0.000   5.168
   11        1.593   3.575   0.000   5.168
   12        1.593   3.575   0.000   5.168
   13        1.593   3.585   0.000   5.178
   14        1.593   3.585   0.000   5.178
   15        1.593   3.585   0.000   5.178
   16        1.590   3.588   0.000   5.178
   17        1.590   3.588   0.000   5.178
   18        1.590   3.588   0.000   5.178
   19        1.592   3.577   0.000   5.169
   20        1.592   3.577   0.000   5.169
   21        1.592   3.577   0.000   5.169
   22        1.593   3.579   0.000   5.172
   23        1.593   3.579   0.000   5.172
   24        1.593   3.579   0.000   5.172
   25        1.588   3.588   0.000   5.176
   26        1.588   3.588   0.000   5.176
   27        1.588   3.588   0.000   5.176
   28        1.590   3.588   0.000   5.179
   29        1.590   3.588   0.000   5.179
   30        1.590   3.588   0.000   5.179
   31        1.596   3.565   0.000   5.160
   32        1.596   3.565   0.000   5.160
   33        1.596   3.565   0.000   5.160
   34        1.593   3.577   0.000   5.170
   35        1.593   3.577   0.000   5.170
   36        1.593   3.577   0.000   5.170
   37        0.056   0.103   0.000   0.159
   38        0.056   0.103   0.000   0.159
   39        0.056   0.103   0.000   0.159
   40        0.060   0.110   0.000   0.170
   41        0.060   0.110   0.000   0.170
   42        0.060   0.110   0.000   0.170
   43        0.057   0.102   0.000   0.159
   44        0.057   0.102   0.000   0.159
   45        0.057   0.102   0.000   0.159
   46        0.057   0.104   0.000   0.161
   47        0.057   0.104   0.000   0.161
   48        0.057   0.104   0.000   0.161
   49        0.060   0.107   0.000   0.167
   50        0.060   0.107   0.000   0.167
   51        0.060   0.107   0.000   0.167
   52        0.059   0.110   0.000   0.168
   53        0.059   0.110   0.000   0.168
   54        0.059   0.110   0.000   0.168
   55        2.122   6.130   0.690   8.942
   56        2.120   6.123   0.676   8.919
   57        2.120   6.123   0.676   8.919
   58        2.120   6.118   0.684   8.922
   59        2.121   6.128   0.684   8.933
   60        2.122   6.126   0.701   8.950
--------------------------------------------------
tot         71.081 167.536   4.112 242.729
 
    CHARGE:  cpu time    0.1207: real time    0.1207
    FORLOC:  cpu time    0.0219: real time    0.0219
    FORNL :  cpu time    0.4803: real time    0.4803
    STRESS:  cpu time    1.4889: real time    1.4891
    FORCOR:  cpu time    0.0740: real time    0.0740
    FORHAR:  cpu time    0.0329: real time    0.0329
    MIXING:  cpu time    0.0036: real time    0.0037
    OFIELD:  cpu time    0.0000: real time    0.0000

  FORCE on cell =-STRESS in cart. coord.  units (eV):
  Direction    XX          YY          ZZ          XY          YZ          ZX
  --------------------------------------------------------------------------------------
  Alpha Z   571.58137   571.58137   571.58137
  Ewald   -4921.31471 -4921.31739 -5325.15686    -0.00221    -0.00167    -0.00061
  Hartree  1856.19514  1856.19608  1605.89925     0.00064    -0.00006     0.00034
  E(xc)   -1246.29840 -1246.29836 -1246.98359     0.00002    -0.00002     0.00002
  Local   -3368.41371 -3368.41686 -2710.88295    -0.00099     0.00316    -0.00152
  n-local  2684.79078  2684.78995  2686.86645    -0.00034     0.00044    -0.00028
  augment  -619.11163  -619.11222  -619.64683    -0.00052     0.00012    -0.00006
  Kinetic  5045.08487  5045.08533  5038.45375     0.00022    -0.00016     0.00030
  Fock        0.00000     0.00000     0.00000     0.00000     0.00000     0.00000
  -------------------------------------------------------------------------------------
  Total       2.51081     2.51082     0.13060     0.00000    -0.00000     0.00000
  in kB       2.91590     2.91590     0.15167     0.00000    -0.00000     0.00000
  external pressure =        1.99 kB  Pullay stress =        0.00 kB


 VOLUME and BASIS-vectors are now :
 -----------------------------------------------------------------------------
  energy-cutoff  :      520.00
  volume of cell :     1379.60
      direct lattice vectors                 reciprocal lattice vectors
    11.334128968  0.000003780  0.000002558     0.088229083  0.050939039 -0.000000003
    -5.667061570  9.815647364 -0.000003655    -0.000000034  0.101878131  0.000000024
     0.000002030 -0.000002865 12.400680362    -0.000000018  0.000000020  0.080640737

  length of vectors
    11.334128968 11.334130757 12.400680362     0.101878147  0.101878131  0.080640737


 FORCES acting on ions
    electron-ion (+dipol)            ewald-force                    non-local-force                 convergence-correction
 -----------------------------------------------------------------------------------------------
   -.812E+02 0.462E+02 0.492E+02   0.816E+02 -.463E+02 -.496E+02   -.419E+00 0.125E+00 0.360E+00   0.168E-03 -.132E-02 0.190E-02
   0.585E+00 -.934E+02 0.492E+02   -.684E+00 0.938E+02 -.496E+02   0.101E+00 -.425E+00 0.360E+00   0.106E-02 0.805E-03 0.190E-02
   0.806E+02 0.472E+02 0.492E+02   -.809E+02 -.475E+02 -.496E+02   0.317E+00 0.300E+00 0.360E+00   -.123E-02 0.514E-03 0.190E-02
   0.660E+02 -.273E+02 -.700E+02   -.667E+02 0.272E+02 0.704E+02   0.675E+00 0.116E+00 -.411E+00   -.963E-03 0.121E-02 -.162E-02
   -.567E+02 -.435E+02 -.700E+02   0.569E+02 0.442E+02 0.704E+02   -.236E+00 -.642E+00 -.411E+00   0.153E-02 0.231E-03 -.162E-02
   -.934E+01 0.709E+02 -.700E+02   0.978E+01 -.714E+02 0.704E+02   -.438E+00 0.526E+00 -.411E+00   -.563E-03 -.144E-02 -.162E-02
   -.533E+02 0.347E+02 0.812E+02   0.536E+02 -.353E+02 -.815E+02   -.251E+00 0.506E+00 0.389E+00   -.988E-03 0.907E-03 -.164E-02
   -.344E+01 -.636E+02 0.812E+02   0.375E+01 0.640E+02 -.815E+02   -.313E+00 -.471E+00 0.389E+00   -.292E-03 -.131E-02 -.164E-02
   0.568E+02 0.288E+02 0.812E+02   -.573E+02 -.288E+02 -.815E+02   0.564E+00 -.354E-01 0.389E+00   0.128E-02 0.402E-03 -.164E-02
   0.536E+02 -.454E+02 -.498E+02   -.537E+02 0.459E+02 0.502E+02   0.141E+00 -.523E+00 -.425E+00   0.166E-04 0.334E-03 -.360E-04
   -.661E+02 -.237E+02 -.498E+02   0.666E+02 0.236E+02 0.502E+02   -.523E+00 0.140E+00 -.425E+00   0.281E-03 -.181E-03 -.360E-04
   0.125E+02 0.691E+02 -.498E+02   -.129E+02 -.695E+02 0.502E+02   0.383E+00 0.383E+00 -.425E+00   -.297E-03 -.152E-03 -.360E-04
   0.626E+02 -.470E+02 -.748E+02   -.631E+02 0.473E+02 0.746E+02   0.471E+00 -.270E+00 0.240E+00   0.164E-02 0.876E-03 0.415E-03
   0.942E+01 0.777E+02 -.748E+02   -.942E+01 -.783E+02 0.746E+02   -.170E-02 0.543E+00 0.240E+00   -.158E-02 0.983E-03 0.415E-03
   -.720E+02 -.307E+02 -.748E+02   0.725E+02 0.310E+02 0.746E+02   -.469E+00 -.273E+00 0.240E+00   -.620E-04 -.186E-02 0.415E-03
   -.654E+02 0.299E+02 -.558E+02   0.657E+02 -.296E+02 0.564E+02   -.297E+00 -.296E+00 -.560E+00   -.232E-02 0.922E-03 -.927E-03
   0.586E+02 0.417E+02 -.558E+02   -.585E+02 -.421E+02 0.564E+02   -.107E+00 0.405E+00 -.560E+00   0.196E-02 0.155E-02 -.927E-03
   0.684E+01 -.716E+02 -.558E+02   -.725E+01 0.717E+02 0.564E+02   0.404E+00 -.110E+00 -.560E+00   0.363E-03 -.247E-02 -.927E-03
   0.653E+02 -.340E+02 0.698E+02   -.656E+02 0.342E+02 -.699E+02   0.339E+00 -.218E+00 0.118E+00   -.146E-03 -.448E-05 0.272E-02
   -.320E+01 0.735E+02 0.698E+02   0.319E+01 -.739E+02 -.699E+02   0.190E-01 0.403E+00 0.118E+00   0.768E-04 -.124E-03 0.272E-02
   -.620E+02 -.395E+02 0.698E+02   0.624E+02 0.397E+02 -.699E+02   -.358E+00 -.185E+00 0.118E+00   0.691E-04 0.129E-03 0.272E-02
   -.636E+02 0.356E+02 -.709E+02   0.638E+02 -.359E+02 0.715E+02   -.190E+00 0.382E+00 -.543E+00   0.225E-02 -.396E-03 -.322E-03
   0.626E+02 0.373E+02 -.710E+02   -.630E+02 -.373E+02 0.715E+02   0.426E+00 -.267E-01 -.543E+00   -.147E-02 -.175E-02 -.322E-03
   0.103E+01 -.729E+02 -.709E+02   -.791E+00 0.732E+02 0.715E+02   -.236E+00 -.355E+00 -.543E+00   -.783E-03 0.215E-02 -.322E-03
   0.538E+02 -.321E+02 -.188E+02   -.549E+02 0.327E+02 0.187E+02   0.113E+01 -.639E+00 0.514E-01   0.328E-03 -.108E-02 0.257E-03
   0.904E+00 0.626E+02 -.188E+02   -.893E+00 -.639E+02 0.187E+02   -.112E-01 0.130E+01 0.514E-01   0.770E-03 0.823E-03 0.257E-03
   -.547E+02 -.305E+02 -.188E+02   0.558E+02 0.312E+02 0.187E+02   -.112E+01 -.658E+00 0.514E-01   -.110E-02 0.255E-03 0.257E-03
   0.690E+02 -.294E+02 0.530E+02   -.694E+02 0.295E+02 -.529E+02   0.385E+00 -.150E+00 -.141E+00   -.183E-02 -.303E-03 -.209E-03
   -.599E+02 -.451E+02 0.530E+02   0.603E+02 0.454E+02 -.529E+02   -.323E+00 -.258E+00 -.141E+00   0.655E-03 0.174E-02 -.209E-03
   -.910E+01 0.745E+02 0.530E+02   0.916E+01 -.749E+02 -.529E+02   -.624E-01 0.409E+00 -.141E+00   0.118E-02 -.144E-02 -.209E-03
   -.148E+03 0.864E+02 0.935E+01   0.149E+03 -.869E+02 -.944E+01   -.140E+01 0.443E+00 0.887E-01   0.515E-03 -.194E-02 0.925E-03
   -.861E+00 -.171E+03 0.935E+01   0.546E+00 0.173E+03 -.944E+01   0.319E+00 -.144E+01 0.887E-01   0.142E-02 0.142E-02 0.925E-03
   0.149E+03 0.849E+02 0.935E+01   -.150E+03 -.859E+02 -.944E+01   0.109E+01 0.995E+00 0.887E-01   -.194E-02 0.523E-03 0.925E-03
   0.564E+02 -.415E+02 0.747E+02   -.565E+02 0.419E+02 -.756E+02   0.835E-01 -.452E+00 0.835E+00   0.740E-03 -.290E-03 -.384E-03
   -.641E+02 -.281E+02 0.747E+02   0.645E+02 0.279E+02 -.756E+02   -.433E+00 0.154E+00 0.835E+00   -.621E-03 -.496E-03 -.384E-03
   0.771E+01 0.696E+02 0.747E+02   -.806E+01 -.699E+02 -.756E+02   0.350E+00 0.298E+00 0.835E+00   -.119E-03 0.786E-03 -.384E-03
   0.661E+01 -.140E+01 0.117E+01   -.603E+01 0.176E+01 -.143E+01   -.578E+00 -.367E+00 0.250E+00   -.583E-04 0.188E-04 -.524E-04
   -.210E+01 0.642E+01 0.117E+01   0.149E+01 -.611E+01 -.143E+01   0.607E+00 -.317E+00 0.250E+00   0.128E-04 -.599E-04 -.524E-04
   -.451E+01 -.503E+01 0.117E+01   0.455E+01 0.434E+01 -.143E+01   -.288E-01 0.684E+00 0.250E+00   0.455E-04 0.411E-04 -.524E-04
   0.370E+00 0.334E+01 -.361E+00   0.285E+00 -.330E+01 0.223E+00   -.655E+00 -.428E-01 0.141E+00   -.234E-04 0.213E-04 0.297E-04
   -.308E+01 -.135E+01 -.361E+00   0.271E+01 0.189E+01 0.223E+00   0.365E+00 -.546E+00 0.141E+00   -.672E-05 -.309E-04 0.298E-04
   0.271E+01 -.199E+01 -.361E+00   -.300E+01 0.140E+01 0.223E+00   0.290E+00 0.589E+00 0.141E+00   0.302E-04 0.966E-05 0.298E-04
   0.982E-01 0.151E+01 0.488E+00   -.657E+00 -.163E+01 -.494E+00   0.564E+00 0.118E+00 0.883E-02   0.141E-04 0.340E-04 0.263E-04
   -.136E+01 -.671E+00 0.488E+00   0.174E+01 0.247E+00 -.494E+00   -.384E+00 0.429E+00 0.883E-02   -.365E-04 -.482E-05 0.263E-04
   0.126E+01 -.841E+00 0.488E+00   -.108E+01 0.138E+01 -.494E+00   -.180E+00 -.547E+00 0.883E-02   0.224E-04 -.292E-04 0.263E-04
   0.474E+01 0.487E+01 -.117E+01   -.422E+01 -.498E+01 0.121E+01   -.511E+00 0.112E+00 -.410E-01   0.144E-04 0.723E-05 0.333E-05
   -.658E+01 0.167E+01 -.117E+01   0.642E+01 -.117E+01 0.121E+01   0.158E+00 -.499E+00 -.410E-01   -.134E-04 0.882E-05 0.333E-05
   0.184E+01 -.654E+01 -.117E+01   -.220E+01 0.615E+01 0.121E+01   0.353E+00 0.386E+00 -.410E-01   -.916E-06 -.160E-04 0.333E-05
   -.354E+00 0.671E+00 0.176E+01   -.351E-01 -.456E+00 -.140E+01   0.389E+00 -.220E+00 -.363E+00   -.528E-06 -.375E-05 -.231E-04
   -.404E+00 -.642E+00 0.176E+01   0.413E+00 0.198E+00 -.140E+01   -.383E-02 0.446E+00 -.363E+00   0.351E-05 0.142E-05 -.231E-04
   0.758E+00 -.289E-01 0.176E+01   -.378E+00 0.258E+00 -.140E+01   -.385E+00 -.227E+00 -.363E+00   -.298E-05 0.232E-05 -.231E-04
   -.287E+01 0.460E+01 -.250E+01   0.248E+01 -.472E+01 0.265E+01   0.385E+00 0.111E+00 -.150E+00   -.151E-04 0.700E-05 0.428E-04
   -.255E+01 -.478E+01 -.250E+01   0.284E+01 0.451E+01 0.265E+01   -.289E+00 0.278E+00 -.150E+00   0.147E-05 -.166E-04 0.428E-04
   0.542E+01 0.180E+00 -.250E+01   -.533E+01 0.207E+00 0.265E+01   -.964E-01 -.389E+00 -.150E+00   0.136E-04 0.955E-05 0.428E-04
   -.145E-02 -.685E-03 -.950E+01   -.199E-03 -.264E-03 0.878E+01   0.117E-06 -.165E-06 0.715E+00   0.320E-07 0.428E-07 -.119E-02
   0.610E-03 -.106E-02 0.225E+00   0.293E-03 -.382E-03 0.222E+00   -.735E-07 0.104E-06 -.449E+00   0.234E-07 0.136E-07 0.574E-04
   -.185E-03 -.753E-03 -.151E+01   -.349E-03 0.503E-04 0.168E+01   -.286E-07 0.403E-07 -.174E+00   0.931E-07 0.310E-07 0.288E-02
   0.735E-03 -.144E-02 0.132E+03   0.410E-03 -.325E-03 -.132E+03   -.276E-07 0.390E-07 -.169E+00   -.427E-07 -.739E-07 -.218E-02
   -.376E-03 0.177E-02 -.152E+01   -.397E-03 0.519E-03 0.127E+01   0.398E-07 -.561E-07 0.243E+00   -.297E-07 -.450E-08 -.204E-02
   -.149E-02 -.251E-03 -.108E+03   0.542E-03 -.606E-04 0.108E+03   -.385E-07 0.543E-07 -.235E+00   0.250E-07 0.968E-08 0.269E-03
 -----------------------------------------------------------------------------------------------
   0.714E-02 -.126E-01 0.522E+00   -.211E-13 -.102E-13 -.853E-13   -.860E-07 0.121E-06 -.525E+00   0.119E-06 0.762E-07 0.111E-02
 
 
 POSITION                                       TOTAL-FORCE (eV/Angst)
 -----------------------------------------------------------------------------------
     -3.65737      8.65042      4.72988        -0.005672     -0.000025      0.002686
      0.00428      2.32305      4.72989         0.002857     -0.004899      0.002686
      3.65310      8.65782      4.72989         0.002814      0.004924      0.002686
      9.39983      1.13855      7.46620         0.004472     -0.000969     -0.001135
      1.95316      1.10588      7.46620        -0.003076     -0.003388     -0.001135
      5.64821      7.57123      7.46620        -0.001397      0.004358     -0.001135
     -3.94112      8.57805     10.94878        -0.003577      0.002814     -0.002194
      0.20883      2.11351     10.94878        -0.000649     -0.004505     -0.002194
      3.73231      8.93974     10.94878         0.004225      0.001691     -0.002194
      9.32499      1.04994      1.51745         0.005379     -0.001225     -0.002259
      1.91384      1.21500      1.51746        -0.003751     -0.004045     -0.002259
      5.76237      7.55072      1.51745        -0.001628      0.005271     -0.002259
     -1.98659      7.66474      1.70826         0.003264      0.002540      0.003193
      0.02250      4.26284      1.70827        -0.003832      0.001557      0.003193
      1.96410      7.70371      1.70826         0.000567     -0.004097      0.003193
      7.66166      2.33766     10.66458        -0.004026      0.002253     -0.000336
      3.86071      2.01163     10.66458         0.003964      0.002361     -0.000336
      5.47884      5.46637     10.66458         0.000062     -0.004613     -0.000336
     -1.90056      7.83628      7.89382         0.001977     -0.002662      0.006142
     -0.16908      4.25157      7.89382         0.001317      0.003043      0.006142
      2.06964      7.54344      7.89382        -0.003293     -0.000381      0.006142
      7.66505      2.21992      4.40232        -0.003458      0.003777     -0.001323
      3.75705      2.06756      4.40232         0.005000      0.001107     -0.001323
      5.57910      5.52817      4.40231        -0.001542     -0.004883     -0.001323
      2.09074      5.26702      4.71222        -0.002879      0.000311     -0.000630
      0.06033      8.99277      4.71222         0.001170     -0.002649     -0.000630
     -2.15106      5.37150      4.71222         0.001709      0.002338     -0.000630
      3.75484      4.38375      7.71103         0.001365     -0.004247     -0.000533
      7.58608      4.37199      7.71102        -0.004361      0.000942     -0.000533
      5.66028      1.05990      7.71104         0.002996      0.003306     -0.000533
      1.69015      5.49082     11.00746        -0.005106     -0.001527      0.005316
      0.06681      8.53395     11.00746         0.003875     -0.003659      0.005316
     -1.75695      5.60653     11.00746         0.001231      0.005185      0.005316
      3.66999      4.29208      1.56936         0.004215     -0.001883     -0.003466
      7.54912      4.49130      1.56935        -0.003738     -0.002708     -0.003466
      5.78208      1.03227      1.56936        -0.000477      0.004592     -0.003466
      7.67314      0.41695     12.13611        -0.001054      0.001246     -0.005765
      7.13648      6.43666     12.13611        -0.000551     -0.001536     -0.005765
      2.19160      2.96204     12.13612         0.001606      0.000290     -0.005765
      4.04174      0.12233      6.13593        -0.000963      0.003274      0.002656
      9.20731      3.43909      6.13592        -0.002354     -0.002471      0.002656
      3.75214      6.25423      6.13592         0.003317     -0.000803      0.002656
      1.66386      9.60255      6.43949         0.005180     -0.001389      0.003156
     -3.48091      6.45532      6.43949        -0.001387      0.005181      0.003156
      1.81706      3.57343      6.43950        -0.003793     -0.003791      0.003156
     -1.61623      9.72384      3.00503         0.004258     -0.000730     -0.000225
     -1.94591      3.55402      3.00503        -0.001497      0.004052     -0.000225
      3.56214      6.35342      3.00503        -0.002761     -0.003322     -0.000225
      3.02291      0.09532      9.47207        -0.000296     -0.005606     -0.002947
      9.74014      2.57026      9.47207         0.005003      0.002547     -0.002947
      4.23816      7.15007      9.47207        -0.004707      0.003059     -0.002947
      1.82059      9.75511      3.17821         0.002766     -0.000270     -0.001543
     -3.69141      6.51477      3.17820        -0.001149      0.002531     -0.001543
      1.87081      3.36141      3.17821        -0.001617     -0.002261     -0.001543
      0.00000      0.00000      0.14537        -0.000000      0.000000     -0.003710
      0.00000      0.00000      6.02463        -0.000000      0.000000     -0.001412
      5.66707      3.27188      9.18564         0.000000     -0.000000      0.002034
      0.00000      6.54377      9.14526         0.000000     -0.000000      0.008133
      5.66707      3.27188      2.98533        -0.000000      0.000000     -0.004052
      0.00000      6.54377      0.47909        -0.000000      0.000000     -0.003370
 -----------------------------------------------------------------------------------
    total drift:                                0.007137     -0.012597     -0.002313


--------------------------------------------------------------------------------------------------------



  FREE ENERGIE OF THE ION-ELECTRON SYSTEM (eV)
  ---------------------------------------------------
  free  energy   TOTEN  =      -257.76706057 eV

  energy  without entropy=     -257.76706057  energy(sigma->0) =     -257.76706057
 
 d Force = 0.2071397E-03[ 0.163E-03, 0.252E-03]  d Energy = 0.2076263E-03-0.487E-06
 d Force =-0.1537580E+00[-0.155E+00,-0.153E+00]  d Ewald  =-0.1537593E+00 0.131E-05


--------------------------------------------------------------------------------------------------------


    POTLOK:  cpu time    0.0714: real time    0.0715


--------------------------------------------------------------------------------------------------------


 Conjugate gradient step on ions:
 trial-energy change:   -0.000208  1 .order   -0.000207   -0.000252   -0.000163
  (g-gl).g = 0.155E-03      g.g   = 0.136E-03  gl.gl    = 0.390E-03
 g(Force)  = 0.136E-03   g(Stress)= 0.000E+00 ortho     =-0.173E-04
 gamma     =   0.39898
 trial     =   1.95265
 opt step  =   5.53466  (harmonic =   5.53466) maximal distance =0.00356256
 next E    =  -257.767209   (d E  =  -0.00036)


--------------------------------------------------------------------------------------------------------


  
 reached required accuracy - stopping structural energy minimisation
     LOOP+:  cpu time   12.6098: real time   12.6375
    4ORBIT:  cpu time    0.0000: real time    0.0000
 


 total charge     
 
# of ion       s       p       d       tot
------------------------------------------
    1        1.593   3.573   0.000   5.166
    2        1.593   3.573   0.000   5.166
    3        1.593   3.573   0.000   5.166
    4        1.592   3.579   0.000   5.171
    5        1.592   3.579   0.000   5.171
    6        1.592   3.579   0.000   5.171
    7        1.591   3.588   0.000   5.179
    8        1.591   3.588   0.000   5.179
    9        1.591   3.588   0.000   5.179
   10        1.593   3.575   0.000   5.168
   11        1.593   3.575   0.000   5.168
   12        1.593   3.575   0.000   5.168
   13        1.593   3.585   0.000   5.178
   14        1.593   3.585   0.000   5.178
   15        1.593   3.585   0.000   5.178
   16        1.590   3.588   0.000   5.178
   17        1.590   3.588   0.000   5.178
   18        1.590   3.588   0.000   5.178
   19        1.592   3.577   0.000   5.169
   20        1.592   3.577   0.000   5.169
   21        1.592   3.577   0.000   5.169
   22        1.593   3.579   0.000   5.172
   23        1.593   3.579   0.000   5.172
   24        1.593   3.579   0.000   5.172
   25        1.588   3.588   0.000   5.176
   26        1.588   3.588   0.000   5.176
   27        1.588   3.588   0.000   5.176
   28        1.590   3.588   0.000   5.179
   29        1.590   3.588   0.000   5.179
   30        1.590   3.588   0.000   5.179
   31        1.596   3.565   0.000   5.160
   32        1.596   3.565   0.000   5.160
   33        1.596   3.565   0.000   5.160
   34        1.593   3.577   0.000   5.170
   35        1.593   3.577   0.000   5.170
   36        1.593   3.577   0.000   5.170
   37        0.056   0.103   0.000   0.159
   38        0.056   0.103   0.000   0.159
   39        0.056   0.103   0.000   0.159
   40        0.060   0.110   0.000   0.170
   41        0.060   0.110   0.000   0.170
   42        0.060   0.110   0.000   0.170
   43        0.057   0.102   0.000   0.159
   44        0.057   0.102   0.000   0.159
   45        0.057   0.102   0.000   0.159
   46        0.057   0.104   0.000   0.161
   47        0.057   0.104   0.000   0.161
   48        0.057   0.104   0.000   0.161
   49        0.060   0.107   0.000   0.167
   50        0.060   0.107   0.000   0.167
   51        0.060   0.107   0.000   0.167
   52        0.059   0.110   0.000   0.168
   53        0.059   0.110   0.000   0.168
   54        0.059   0.110   0.000   0.168
   55        2.122   6.130   0.690   8.942
   56        2.120   6.123   0.676   8.919
   57        2.120   6.123   0.676   8.919
   58        2.120   6.118   0.684   8.922
   59        2.121   6.128   0.684   8.933
   60        2.122   6.126   0.701   8.950
--------------------------------------------------
tot         71.081 167.536   4.112 242.729
 

 total amount of memory used by VASP MPI-rank0   124439. kBytes
=======================================================================

   base      :      30000. kBytes
   nonl-proj :      51615. kBytes
   fftplans  :       6035. kBytes
   grid      :      33449. kBytes
   one-center:        933. kBytes
   wavefun   :       2407. kBytes
 
  
  
 General timing and accounting informations for this job:
 ========================================================
  
                  Total CPU time used (sec):      130.843
                            User time (sec):      129.735
                          System time (sec):        1.108
                         Elapsed time (sec):      133.309
  
                   Maximum memory used (kb):      201368.
                   Average memory used (kb):           0.
  
                          Minor page faults:        49817
                          Major page faults:            0
                 Voluntary context switches:         5374
