LYC-165-space-group                     
   1.00000000000000     
    11.3341289675471426    0.0000037802449549    0.0000025579636639
    -5.6670615697350355    9.8156473644383802   -0.0000036550810792
     0.0000020302939354   -0.0000028650658775   12.4006803623451045
   Cl   Li   Y 
    36    18     6
Direct
  0.1177763516356710  0.8817721090161441  0.3805723154589852
  0.1182278604337037  0.2360040288915818  0.3805723638359301
  0.7639956946255683  0.8822239795814814  0.3805725258487752
  0.8871636081045383  0.1153661074566309  0.6028376604638503
  0.2282025310249544  0.1128367661361816  0.6028375953393343
  0.8846343484154462  0.7717979258528482  0.6028375603733868
  0.0897161826936252  0.8742021739664638  0.8828202184606871
  0.1257984151154328  0.2155140182108816  0.8828206917147212
  0.7844866873662593  0.9102848203025741  0.8828200404117813
  0.8767148696014451  0.1072912396951636  0.1228095092305472
  0.2305763789829841  0.1232851618690948  0.1228099601142186
  0.8927090821479733  0.7694235767352300  0.1228091550074146
  0.2151906948034456  0.7805601574655817  0.1378914861513684
  0.2194397879071344  0.4346307523784614  0.1378917459795667
  0.5653695859047435  0.7848090041023505  0.1378916522688241
  0.7945193293838243  0.2378971033780560  0.8607045599339297
  0.4433780554733953  0.2054813641350721  0.8607050667071108
  0.7621038729736966  0.5566224079321799  0.8607048630981147
  0.2313924591876459  0.7980509564953653  0.6358066095768349
  0.2019483439368168  0.4333418088858338  0.6358065911757572
  0.5666585401045007  0.7686072833176455  0.6358066142487322
  0.7886616965956565  0.2262197680325977  0.3560708448039102
  0.4375582314440449  0.2113380562280378  0.3560712262581147
  0.7737796453499006  0.5624419265840014  0.3560707962019021
  0.4524284117350017  0.5372678011385486  0.3796712128529969
  0.4627318888654240  0.9151603104819603  0.3796711697666872
  0.0848389524849179  0.5475710192204019  0.3796706439908906
  0.5550078480332812  0.4466877797297653  0.6214394237170704
  0.8916788995300557  0.4449920801079546  0.6214385380564873
  0.5533119883636927  0.1083198373542469  0.6214398618747133
  0.4295357926978932  0.5598036149505630  0.8872466232242867
  0.4401967157915231  0.8697324301554052  0.8872466971009505
  0.1302678441037528  0.5704647641430310  0.8872467188897009
  0.5429085370678194  0.4375241142478674  0.1260743578478023
  0.8946152131882287  0.4570906737705159  0.1260742121681790
  0.5624754521830996  0.1053841275877561  0.1260744502519479
  0.6981567016766946  0.0424359788971557 -0.0210148339718845
 -0.0424347917588470  0.6557209966793367 -0.0210149572200378
  0.3442795490818275  0.3018435632213057 -0.0210139128735987
  0.3627101279245944  0.0120991256152187  0.4949080937010222
 -0.0120993880357448  0.3506110607336646  0.4949075531107012
  0.6493892761210409  0.6372901086837545  0.4949079293289850
  0.6356953947436578 -0.0218368954746747  0.5193408722635365
  0.0218368627875210  0.6575323556885643  0.5193404823278021
  0.3424679600851832  0.3643049203112466  0.5193412089008363
  0.3523272094238028 -0.0093264679973412  0.2423277096406643
  0.0093257914730155  0.3616530235080594  0.2423270039477523
  0.6383458195486350  0.6476720535529531  0.2423276128693956
  0.2717268787577632  0.0100913641015889  0.7636994649281877
 -0.0100903030893137  0.2616352963102365  0.7636994625111988
  0.7383641126287304  0.7282733805893938  0.7636994456914723
  0.6574470157696936 -0.0062620516547237  0.2562730497285519
  0.0062613577056217  0.6637089146382340  0.2562726027143983
  0.3362906411230830  0.3425523220718215  0.2562733320563664
  0.0000002336538282  0.0000000962772928  0.0115450936899471
  0.0000000031864099  0.0000001679259200  0.4859265504339322
  0.6666667468418465  0.3333334553900632  0.7409683329969091
  0.3333333547260151  0.6666668728063508  0.7374512288450400
  0.6666665718381410  0.3333330529329023  0.2407749908507472
  0.3333335395297024  0.6666667186541999  0.0380861391225893
 
  0.00000000E+00  0.00000000E+00  0.00000000E+00
  0.00000000E+00  0.00000000E+00  0.00000000E+00
  0.00000000E+00  0.00000000E+00  0.00000000E+00
  0.00000000E+00  0.00000000E+00  0.00000000E+00
  0.00000000E+00  0.00000000E+00  0.00000000E+00
  0.00000000E+00  0.00000000E+00  0.00000000E+00
  0.00000000E+00  0.00000000E+00  0.00000000E+00
  0.00000000E+00  0.00000000E+00  0.00000000E+00
  0.00000000E+00  0.00000000E+00  0.00000000E+00
  0.00000000E+00  0.00000000E+00  0.00000000E+00
  0.00000000E+00  0.00000000E+00  0.00000000E+00
  0.00000000E+00  0.00000000E+00  0.00000000E+00
  0.00000000E+00  0.00000000E+00  0.00000000E+00
  0.00000000E+00  0.00000000E+00  0.00000000E+00
  0.00000000E+00  0.00000000E+00  0.00000000E+00
  0.00000000E+00  0.00000000E+00  0.00000000E+00
  0.00000000E+00  0.00000000E+00  0.00000000E+00
  0.00000000E+00  0.00000000E+00  0.00000000E+00
  0.00000000E+00  0.00000000E+00  0.00000000E+00
  0.00000000E+00  0.00000000E+00  0.00000000E+00
  0.00000000E+00  0.00000000E+00  0.00000000E+00
  0.00000000E+00  0.00000000E+00  0.00000000E+00
  0.00000000E+00  0.00000000E+00  0.00000000E+00
  0.00000000E+00  0.00000000E+00  0.00000000E+00
  0.00000000E+00  0.00000000E+00  0.00000000E+00
  0.00000000E+00  0.00000000E+00  0.00000000E+00
  0.00000000E+00  0.00000000E+00  0.00000000E+00
  0.00000000E+00  0.00000000E+00  0.00000000E+00
  0.00000000E+00  0.00000000E+00  0.00000000E+00
  0.00000000E+00  0.00000000E+00  0.00000000E+00
  0.00000000E+00  0.00000000E+00  0.00000000E+00
  0.00000000E+00  0.00000000E+00  0.00000000E+00
  0.00000000E+00  0.00000000E+00  0.00000000E+00
  0.00000000E+00  0.00000000E+00  0.00000000E+00
  0.00000000E+00  0.00000000E+00  0.00000000E+00
  0.00000000E+00  0.00000000E+00  0.00000000E+00
  0.00000000E+00  0.00000000E+00  0.00000000E+00
  0.00000000E+00  0.00000000E+00  0.00000000E+00
  0.00000000E+00  0.00000000E+00  0.00000000E+00
  0.00000000E+00  0.00000000E+00  0.00000000E+00
  0.00000000E+00  0.00000000E+00  0.00000000E+00
  0.00000000E+00  0.00000000E+00  0.00000000E+00
  0.00000000E+00  0.00000000E+00  0.00000000E+00
  0.00000000E+00  0.00000000E+00  0.00000000E+00
  0.00000000E+00  0.00000000E+00  0.00000000E+00
  0.00000000E+00  0.00000000E+00  0.00000000E+00
  0.00000000E+00  0.00000000E+00  0.00000000E+00
  0.00000000E+00  0.00000000E+00  0.00000000E+00
  0.00000000E+00  0.00000000E+00  0.00000000E+00
  0.00000000E+00  0.00000000E+00  0.00000000E+00
  0.00000000E+00  0.00000000E+00  0.00000000E+00
  0.00000000E+00  0.00000000E+00  0.00000000E+00
  0.00000000E+00  0.00000000E+00  0.00000000E+00
  0.00000000E+00  0.00000000E+00  0.00000000E+00
  0.00000000E+00  0.00000000E+00  0.00000000E+00
  0.00000000E+00  0.00000000E+00  0.00000000E+00
  0.00000000E+00  0.00000000E+00  0.00000000E+00
  0.00000000E+00  0.00000000E+00  0.00000000E+00
  0.00000000E+00  0.00000000E+00  0.00000000E+00
  0.00000000E+00  0.00000000E+00  0.00000000E+00
