LYC-165-space-group                     
   1.00000000000000     
    11.3341289675471426    0.0000037802449549    0.0000025579636639
    -5.6670615697350355    9.8156473644383802   -0.0000036550810792
     0.0000020302939354   -0.0000028650658775   12.4006803623451045
   Cl   Li   Y 
    36    18     6
Direct
  0.1179573504659971  0.8812885795782496  0.3814214353145287
  0.1187113898716031  0.2366685571598036  0.3814214836914755
  0.7633311663573454  0.8820429807511544  0.3814216457043214
  0.8873350526600852  0.1159929652082374  0.6020800952651219
  0.2286579442210139  0.1126653215806350  0.6020800301406116
  0.8840074906638388  0.7713425126567928  0.6020799951746615
  0.0892363727416822  0.8739158263053369  0.8829176328406443
  0.1260847627765628  0.2153205559200658  0.8829181060946776
  0.7846801496570778  0.9107646302545177  0.8829174547917371
  0.8762181234725777  0.1069652131151892  0.1223684278831292
  0.2307470985318707  0.1237819079979570  0.1223688787667974
  0.8930351087279496  0.7692528571863386  0.1223680736599966
  0.2151597287433895  0.7808698602865249  0.1377556303863464
  0.2191300850861892  0.4342900834974578  0.1377558902145445
  0.5657102547857428  0.7848399701624067  0.1377557965038057
  0.7950595457212488  0.2381563265194806  0.8599991088074018
  0.4430970622773989  0.2049411477976504  0.8599996155805852
  0.7618446498322690  0.5569034011281782  0.8599994119715871
  0.2314879116145310  0.7983457755790085  0.6365635644227626
  0.2016535248531780  0.4331424422290783  0.6365635460216882
  0.5668579067612552  0.7685118308907573  0.6365635690946593
  0.7893605015324230  0.2261608979697376  0.3550058442206133
  0.4368005564444118  0.2106392512912672  0.3550062256748202
  0.7738385154127595  0.5631996015836322  0.3550057956186091
  0.4527608659923217  0.5365941442218495  0.3799972845856841
  0.4634055457821251  0.9161664216559789  0.3799972414993745
  0.0838328413108950  0.5472385649630765  0.3799967157235782
  0.5545896588199840  0.4466083333390904  0.6218234873624201
  0.8920176423526831  0.4454102693212518  0.6218226017018370
  0.5533914347543696  0.1079810945316178  0.6218239255200618
  0.4288174163562482  0.5593949000622789  0.8876500695572284
  0.4406054306798040  0.8694227687020407  0.8876501434338914
  0.1305775055571169  0.5711831404846754  0.8876501652226417
  0.5424344802169000  0.4372690103422817  0.1265539711812505
  0.8948341661335656  0.4575647306214325  0.1265538255016221
  0.5627305560886835  0.1051651746424205  0.1265540635853935
  0.6982329539650897  0.0424785589593212  0.9786646425272342
  0.9575226281789884  0.6557546689055619  0.9786645192790776
  0.3442458768555987  0.3017673109329090  0.9786655636255180
  0.3628308431869118  0.0124632290349729  0.4948057112557305
  0.9875365085444993  0.3503676725762229  0.4948051706654096
  0.6496326642784811  0.6371693934214390  0.4948055468836981
  0.6359457581714032  0.9782899210533498  0.5192855410819305
  0.0217100462594959  0.6576559025882854  0.5192851511461952
  0.3423444131854614  0.3640545568835017  0.5192858777192298
  0.3527245463420792  0.9906464144324456  0.2423282672533551
  0.0093529090432317  0.3620774779965500  0.2423275615604430
  0.6379213650601444  0.6472747166346783  0.2423281704820885
  0.2715639878422810  0.0097110823923481  0.7638346054127033
  0.9902899786199291  0.2618526871040014  0.7638346029957140
  0.7381467218349673  0.7284362715048724  0.7638345861759880
  0.6575454241728845  0.9938326451284543  0.2562931559727859
  0.0061666609224413  0.6637126262582518  0.2562927089586340
  0.3362869295030687  0.3424539136686312  0.2562934383006039
  0.0000002336538287  0.0000000962772901  0.0117230520523351
  0.0000000031864076  0.0000001679259185  0.4858308145183090
  0.6666667468418481  0.3333334553900613  0.7407366085177919
  0.3333333547260153  0.6666668728063527  0.7374804737515456
  0.6666665718381424  0.3333330529329004  0.2407389090778840
  0.3333335395297041  0.6666667186541986  0.0386345860656917
 
  0.00000000E+00  0.00000000E+00  0.00000000E+00
  0.00000000E+00  0.00000000E+00  0.00000000E+00
  0.00000000E+00  0.00000000E+00  0.00000000E+00
  0.00000000E+00  0.00000000E+00  0.00000000E+00
  0.00000000E+00  0.00000000E+00  0.00000000E+00
  0.00000000E+00  0.00000000E+00  0.00000000E+00
  0.00000000E+00  0.00000000E+00  0.00000000E+00
  0.00000000E+00  0.00000000E+00  0.00000000E+00
  0.00000000E+00  0.00000000E+00  0.00000000E+00
  0.00000000E+00  0.00000000E+00  0.00000000E+00
  0.00000000E+00  0.00000000E+00  0.00000000E+00
  0.00000000E+00  0.00000000E+00  0.00000000E+00
  0.00000000E+00  0.00000000E+00  0.00000000E+00
  0.00000000E+00  0.00000000E+00  0.00000000E+00
  0.00000000E+00  0.00000000E+00  0.00000000E+00
  0.00000000E+00  0.00000000E+00  0.00000000E+00
  0.00000000E+00  0.00000000E+00  0.00000000E+00
  0.00000000E+00  0.00000000E+00  0.00000000E+00
  0.00000000E+00  0.00000000E+00  0.00000000E+00
  0.00000000E+00  0.00000000E+00  0.00000000E+00
  0.00000000E+00  0.00000000E+00  0.00000000E+00
  0.00000000E+00  0.00000000E+00  0.00000000E+00
  0.00000000E+00  0.00000000E+00  0.00000000E+00
  0.00000000E+00  0.00000000E+00  0.00000000E+00
  0.00000000E+00  0.00000000E+00  0.00000000E+00
  0.00000000E+00  0.00000000E+00  0.00000000E+00
  0.00000000E+00  0.00000000E+00  0.00000000E+00
  0.00000000E+00  0.00000000E+00  0.00000000E+00
  0.00000000E+00  0.00000000E+00  0.00000000E+00
  0.00000000E+00  0.00000000E+00  0.00000000E+00
  0.00000000E+00  0.00000000E+00  0.00000000E+00
  0.00000000E+00  0.00000000E+00  0.00000000E+00
  0.00000000E+00  0.00000000E+00  0.00000000E+00
  0.00000000E+00  0.00000000E+00  0.00000000E+00
  0.00000000E+00  0.00000000E+00  0.00000000E+00
  0.00000000E+00  0.00000000E+00  0.00000000E+00
  0.00000000E+00  0.00000000E+00  0.00000000E+00
  0.00000000E+00  0.00000000E+00  0.00000000E+00
  0.00000000E+00  0.00000000E+00  0.00000000E+00
  0.00000000E+00  0.00000000E+00  0.00000000E+00
  0.00000000E+00  0.00000000E+00  0.00000000E+00
  0.00000000E+00  0.00000000E+00  0.00000000E+00
  0.00000000E+00  0.00000000E+00  0.00000000E+00
  0.00000000E+00  0.00000000E+00  0.00000000E+00
  0.00000000E+00  0.00000000E+00  0.00000000E+00
  0.00000000E+00  0.00000000E+00  0.00000000E+00
  0.00000000E+00  0.00000000E+00  0.00000000E+00
  0.00000000E+00  0.00000000E+00  0.00000000E+00
  0.00000000E+00  0.00000000E+00  0.00000000E+00
  0.00000000E+00  0.00000000E+00  0.00000000E+00
  0.00000000E+00  0.00000000E+00  0.00000000E+00
  0.00000000E+00  0.00000000E+00  0.00000000E+00
  0.00000000E+00  0.00000000E+00  0.00000000E+00
  0.00000000E+00  0.00000000E+00  0.00000000E+00
  0.00000000E+00  0.00000000E+00  0.00000000E+00
  0.00000000E+00  0.00000000E+00  0.00000000E+00
  0.00000000E+00  0.00000000E+00  0.00000000E+00
  0.00000000E+00  0.00000000E+00  0.00000000E+00
  0.00000000E+00  0.00000000E+00  0.00000000E+00
  0.00000000E+00  0.00000000E+00  0.00000000E+00
