Li19Y6Cl35O1                            
 1.
    11.2626820704383253   -0.0701521008181251    0.1093250731823154
    -5.6919777503644102    9.7871062533826567   -0.1371355410918327
     0.1174148033599985   -0.1019153157009301   12.3668668423363375
   Cl   O    Cl   Li   Y 
    12     1    23    19     6
Direct
  0.1249514252702282  0.8811777929643765  0.3797611024995963
  0.1197743562083997  0.2297457773379403  0.3815573970451686
  0.7680368934700795  0.8785632692521212  0.3765993309209044
  0.8833233966428832  0.1136480084405782  0.6025525306842661
  0.2239834245098895  0.1147236809110206  0.6133350474346893
  0.8789110796611675  0.7686603210920459  0.6052705525886286
  0.1093146087495050  0.8891964947867472  0.8836147930832264
  0.1250803565928352  0.2264317848125348  0.8809125315361985
  0.7811935414398424  0.9119436830983287  0.8783337644021452
  0.8783391836821880  0.1137616649530606  0.1212092001892553
  0.2277747811765803  0.1222846920029673  0.1227075314215887
  0.9024335058156150  0.7819710643414171  0.1244641891192411
  0.2055520839162124  0.7605911840367118  0.1226092046353886
  0.2266609134380562  0.4350370042193012  0.1335416365696853
  0.5648667675363052  0.7912555902611678  0.1336378119156882
  0.7819161369807964  0.2318872222320860  0.8655177096217975
  0.4335928302479789  0.2263715128057425  0.8602534301012456
  0.7659912973930512  0.5631897149902187  0.8614305713758289
  0.2226672898769500  0.7893233782108924  0.6341811717529090
  0.2076710189277877  0.4251572725607597  0.6425148039446359
  0.5648830477285283  0.7704578676758252  0.6370818920228482
  0.7833381265306528  0.2206204660926759  0.3588939402509513
  0.4397164655540468  0.2246860041425527  0.3683659978568929
  0.7764619517278840  0.5606374147898751  0.3690740557842147
  0.4549571322933544  0.5460604620965726  0.3795415044527085
  0.4642119040686964  0.9052549255950032  0.3887133435067342
  0.0948626796807644  0.5384449958365972  0.3809455885095610
  0.5419710081148289  0.4422777070500852  0.6292173477013199
  0.8928994298181898  0.4381194756589286  0.6212324427524589
  0.5357180288864685  0.1045051646485472  0.6329851230491937
  0.4330061288492070  0.5620218750832231  0.8771313654614389
  0.4355924473172792  0.8762690041469642  0.8886255396809668
  0.1247110414327102  0.5685995346977687  0.8887452610101502
  0.5500093460483596  0.4419727275845466  0.1308139658761439
  0.9006496223321293  0.4557869810368447  0.1335175083892887
  0.5498610527147529  0.1000990275667907  0.1305088670639080
  0.6847495391884671  0.0324413915670359 -0.0151577794849002
  0.0545404242661173  0.7194262099321430  0.0242688796444100
  0.3437225237262271  0.3249206906202785  0.0043879517180548
  0.3611449588604025  0.0104727451567040  0.4776264874332410
 -0.0145921764515519  0.3362051297618515  0.4887916032647491
  0.6522414556775752  0.6466048090563853  0.4950320051209206
  0.6276460578207627 -0.0234015945016302  0.5270046186075726
 -0.0029879388257990  0.6417508266454891  0.5007379534118729
  0.3592051276993091  0.3503583942362622  0.4906583430584259
  0.2906387073543772 -0.0537108402502657  0.1658283488712925
  0.0020658592047388  0.3419897965864956  0.2338616182362936
  0.6478206793156299  0.6636604114291524  0.2414489732646491
  0.3220368999103996  0.3220058829942293  0.7501696764505641
  0.3022776994943379  0.0015939740892126  0.7554277456326927
 -0.0200347916356530  0.2682172849594353  0.7631369126864391
  0.6951709188878907  0.7022674526391197  0.7761857729511358
  0.6415164967553112 -0.0118879050539860  0.2592683012301945
  0.0846100087905567  0.6699101168738011  0.2410082861701113
  0.3407936503583329  0.3522527345308665  0.2569001146683410
 -0.0056902823455150 -0.0016454599966535  0.0053664437621052
 -0.0020618328884180 -0.0082767722172363  0.4878593476645066
  0.6730179925278704  0.3424483664739954  0.7475858438855452
  0.3274950841065836  0.6684768377959760  0.7390750103458166
  0.6697252812719321  0.3364084276118781  0.2467969881662244
  0.3152338252959108  0.6819468150466390  0.0505225170289016
 
  0.00000000E+00  0.00000000E+00  0.00000000E+00
  0.00000000E+00  0.00000000E+00  0.00000000E+00
  0.00000000E+00  0.00000000E+00  0.00000000E+00
  0.00000000E+00  0.00000000E+00  0.00000000E+00
  0.00000000E+00  0.00000000E+00  0.00000000E+00
  0.00000000E+00  0.00000000E+00  0.00000000E+00
  0.00000000E+00  0.00000000E+00  0.00000000E+00
  0.00000000E+00  0.00000000E+00  0.00000000E+00
  0.00000000E+00  0.00000000E+00  0.00000000E+00
  0.00000000E+00  0.00000000E+00  0.00000000E+00
  0.00000000E+00  0.00000000E+00  0.00000000E+00
  0.00000000E+00  0.00000000E+00  0.00000000E+00
  0.00000000E+00  0.00000000E+00  0.00000000E+00
  0.00000000E+00  0.00000000E+00  0.00000000E+00
  0.00000000E+00  0.00000000E+00  0.00000000E+00
  0.00000000E+00  0.00000000E+00  0.00000000E+00
  0.00000000E+00  0.00000000E+00  0.00000000E+00
  0.00000000E+00  0.00000000E+00  0.00000000E+00
  0.00000000E+00  0.00000000E+00  0.00000000E+00
  0.00000000E+00  0.00000000E+00  0.00000000E+00
  0.00000000E+00  0.00000000E+00  0.00000000E+00
  0.00000000E+00  0.00000000E+00  0.00000000E+00
  0.00000000E+00  0.00000000E+00  0.00000000E+00
  0.00000000E+00  0.00000000E+00  0.00000000E+00
  0.00000000E+00  0.00000000E+00  0.00000000E+00
  0.00000000E+00  0.00000000E+00  0.00000000E+00
  0.00000000E+00  0.00000000E+00  0.00000000E+00
  0.00000000E+00  0.00000000E+00  0.00000000E+00
  0.00000000E+00  0.00000000E+00  0.00000000E+00
  0.00000000E+00  0.00000000E+00  0.00000000E+00
  0.00000000E+00  0.00000000E+00  0.00000000E+00
  0.00000000E+00  0.00000000E+00  0.00000000E+00
  0.00000000E+00  0.00000000E+00  0.00000000E+00
  0.00000000E+00  0.00000000E+00  0.00000000E+00
  0.00000000E+00  0.00000000E+00  0.00000000E+00
  0.00000000E+00  0.00000000E+00  0.00000000E+00
  0.00000000E+00  0.00000000E+00  0.00000000E+00
  0.00000000E+00  0.00000000E+00  0.00000000E+00
  0.00000000E+00  0.00000000E+00  0.00000000E+00
  0.00000000E+00  0.00000000E+00  0.00000000E+00
  0.00000000E+00  0.00000000E+00  0.00000000E+00
  0.00000000E+00  0.00000000E+00  0.00000000E+00
  0.00000000E+00  0.00000000E+00  0.00000000E+00
  0.00000000E+00  0.00000000E+00  0.00000000E+00
  0.00000000E+00  0.00000000E+00  0.00000000E+00
  0.00000000E+00  0.00000000E+00  0.00000000E+00
  0.00000000E+00  0.00000000E+00  0.00000000E+00
  0.00000000E+00  0.00000000E+00  0.00000000E+00
  0.00000000E+00  0.00000000E+00  0.00000000E+00
  0.00000000E+00  0.00000000E+00  0.00000000E+00
  0.00000000E+00  0.00000000E+00  0.00000000E+00
  0.00000000E+00  0.00000000E+00  0.00000000E+00
  0.00000000E+00  0.00000000E+00  0.00000000E+00
  0.00000000E+00  0.00000000E+00  0.00000000E+00
  0.00000000E+00  0.00000000E+00  0.00000000E+00
  0.00000000E+00  0.00000000E+00  0.00000000E+00
  0.00000000E+00  0.00000000E+00  0.00000000E+00
  0.00000000E+00  0.00000000E+00  0.00000000E+00
  0.00000000E+00  0.00000000E+00  0.00000000E+00
  0.00000000E+00  0.00000000E+00  0.00000000E+00
  0.00000000E+00  0.00000000E+00  0.00000000E+00
