Li3ErCl6                                
   1.00000000000000     
    11.2350813304671959    0.0000054648476179    0.0000502246817514
    -5.6175359325367387    9.7298685781292704   -0.0000502246817507
     0.0000506793673368   -0.0000292597463735   12.2173329189681521
   Cl   Er   Li
    36     6    18
Direct
  0.1106891820872813  0.8806178046959143  0.3885989928819631
  0.1193852135252402  0.2300715869059038  0.3886016169211478
  0.7699293013453745  0.8893072859514437  0.3886024848891288
  0.8893108179127187  0.1193821953040857  0.6114010071180367
  0.2300706986546255  0.1106927140485564  0.6113975151108713
  0.8806147864747598  0.7699284130940961  0.6113983830788522
  0.1193821953040857  0.8893108179127187  0.8885989928819633
  0.1106927140485564  0.2300706986546255  0.8886024848891287
  0.7699284130940961  0.8806147864747598  0.8886016169211478
  0.8806178046959143  0.1106891820872813  0.1114010221180416
  0.2300715869059038  0.1193852135252402  0.1113983980788570
  0.8893072859514437  0.7699293013453745  0.1113975301108760
  0.2140837257293444  0.7698427019064940  0.1398922425735402
  0.2301487852825645  0.4442085423285506  0.1398734617992012
  0.5557884094080437  0.7859267620080748  0.1398722698605976
  0.7859162892706533  0.2301573130935037  0.8601077274264572
  0.4442115605919538  0.2140732529919230  0.8601277001394000
  0.7698512297174331  0.5557914276714468  0.8601265082007964
  0.2301573130935037  0.7859162892706533  0.6398922725735428
  0.2140732529919230  0.4442115605919538  0.6398722998606000
  0.5557914276714468  0.7698512297174330  0.6398734917992036
  0.7698427019064940  0.2140837257293444  0.3601077574264598
  0.4442085423285506  0.2301487852825645  0.3601265382007988
  0.7859267620080748  0.5557884094080437  0.3601277301394024
  0.4351859307271948  0.5431798982666548  0.3810845993131054
  0.4568056378982950  0.8919757868913821  0.3810718818189620
  0.1080274083222979  0.5648270784683465  0.3810709875549871
  0.5648140692728052  0.4568201017333453  0.6189154006868947
  0.8919725916777020  0.4351729215316534  0.6189290124450127
  0.5431943621017048  0.1080242131086177  0.6189281181810380
  0.4568201017333453  0.5648140692728052  0.8810845993131053
  0.4351729215316534  0.8919725916776949  0.8810709875549873
  0.1080242131086177  0.5431943621017048  0.8810718818189620
  0.5431798982666477  0.4351859307271948  0.1189154156868995
  0.8919757868913821  0.4568056378982950  0.1189281331810427
  0.5648270784683465  0.1080274083223050  0.1189290274450177
  0.0000000000000000  0.0000000000000000 -0.0000000000000000
  0.0000000000000000  0.0000000000000000  0.5000000000000000
  0.3333041984196320  0.6666952122080985  0.2611925108748633
  0.6666958015803680  0.3333047877919015  0.7388074891251368
  0.3333047877919015  0.6666958015803680  0.7611925108748632
  0.6666952122080985  0.3333041984196320  0.2388074891251367
  0.3491884114751152  0.3316251944768899  0.9705366646962851
  0.6683716182605696  0.0175664427176041  0.9705353921308431
  0.9824382980902554  0.6508081799406845  0.9705401342301200
  0.6508116175248836  0.6683748345231090  0.0294633353037149
  0.3316284107394292  0.9824335572823960  0.0294646078691569
  0.0175617019097446  0.3491918490593142  0.0294598657698801
  0.3316251944768899  0.3491884114751152  0.5294633353037149
  0.6508081799406845  0.9824382980902554  0.5294598657698800
  0.0175664427176041  0.6683716182605696  0.5294646078691569
  0.6683748345231090  0.6508116175248836  0.4705366646962851
  0.3491918490593142  0.0175617019097446  0.4705401342301199
  0.9824335572823960  0.3316284107394292  0.4705353921308431
  0.3237455484668087 -0.0000045207069354  0.7499972108645592
 -0.0000045207069354  0.3237455484668087  0.7500027891354408
  0.6762549444801486  0.6762549444801486  0.7500000000000000
  0.6762544515331913  0.0000045207069352  0.2500027891354409
  0.0000045207069352  0.6762544515331913  0.2499972108645591
  0.3237450555198514  0.3237450555198514  0.2500000000000000
 
  0.00000000E+00  0.00000000E+00  0.00000000E+00
  0.00000000E+00  0.00000000E+00  0.00000000E+00
  0.00000000E+00  0.00000000E+00  0.00000000E+00
  0.00000000E+00  0.00000000E+00  0.00000000E+00
  0.00000000E+00  0.00000000E+00  0.00000000E+00
  0.00000000E+00  0.00000000E+00  0.00000000E+00
  0.00000000E+00  0.00000000E+00  0.00000000E+00
  0.00000000E+00  0.00000000E+00  0.00000000E+00
  0.00000000E+00  0.00000000E+00  0.00000000E+00
  0.00000000E+00  0.00000000E+00  0.00000000E+00
  0.00000000E+00  0.00000000E+00  0.00000000E+00
  0.00000000E+00  0.00000000E+00  0.00000000E+00
  0.00000000E+00  0.00000000E+00  0.00000000E+00
  0.00000000E+00  0.00000000E+00  0.00000000E+00
  0.00000000E+00  0.00000000E+00  0.00000000E+00
  0.00000000E+00  0.00000000E+00  0.00000000E+00
  0.00000000E+00  0.00000000E+00  0.00000000E+00
  0.00000000E+00  0.00000000E+00  0.00000000E+00
  0.00000000E+00  0.00000000E+00  0.00000000E+00
  0.00000000E+00  0.00000000E+00  0.00000000E+00
  0.00000000E+00  0.00000000E+00  0.00000000E+00
  0.00000000E+00  0.00000000E+00  0.00000000E+00
  0.00000000E+00  0.00000000E+00  0.00000000E+00
  0.00000000E+00  0.00000000E+00  0.00000000E+00
  0.00000000E+00  0.00000000E+00  0.00000000E+00
  0.00000000E+00  0.00000000E+00  0.00000000E+00
  0.00000000E+00  0.00000000E+00  0.00000000E+00
  0.00000000E+00  0.00000000E+00  0.00000000E+00
  0.00000000E+00  0.00000000E+00  0.00000000E+00
  0.00000000E+00  0.00000000E+00  0.00000000E+00
  0.00000000E+00  0.00000000E+00  0.00000000E+00
  0.00000000E+00  0.00000000E+00  0.00000000E+00
  0.00000000E+00  0.00000000E+00  0.00000000E+00
  0.00000000E+00  0.00000000E+00  0.00000000E+00
  0.00000000E+00  0.00000000E+00  0.00000000E+00
  0.00000000E+00  0.00000000E+00  0.00000000E+00
  0.00000000E+00  0.00000000E+00  0.00000000E+00
  0.00000000E+00  0.00000000E+00  0.00000000E+00
  0.00000000E+00  0.00000000E+00  0.00000000E+00
  0.00000000E+00  0.00000000E+00  0.00000000E+00
  0.00000000E+00  0.00000000E+00  0.00000000E+00
  0.00000000E+00  0.00000000E+00  0.00000000E+00
  0.00000000E+00  0.00000000E+00  0.00000000E+00
  0.00000000E+00  0.00000000E+00  0.00000000E+00
  0.00000000E+00  0.00000000E+00  0.00000000E+00
  0.00000000E+00  0.00000000E+00  0.00000000E+00
  0.00000000E+00  0.00000000E+00  0.00000000E+00
  0.00000000E+00  0.00000000E+00  0.00000000E+00
  0.00000000E+00  0.00000000E+00  0.00000000E+00
  0.00000000E+00  0.00000000E+00  0.00000000E+00
  0.00000000E+00  0.00000000E+00  0.00000000E+00
  0.00000000E+00  0.00000000E+00  0.00000000E+00
  0.00000000E+00  0.00000000E+00  0.00000000E+00
  0.00000000E+00  0.00000000E+00  0.00000000E+00
  0.00000000E+00  0.00000000E+00  0.00000000E+00
  0.00000000E+00  0.00000000E+00  0.00000000E+00
  0.00000000E+00  0.00000000E+00  0.00000000E+00
  0.00000000E+00  0.00000000E+00  0.00000000E+00
  0.00000000E+00  0.00000000E+00  0.00000000E+00
  0.00000000E+00  0.00000000E+00  0.00000000E+00
