Li3InCl6                                
   1.00000000000000     
    13.4590179996000003    0.0000000000000000   -0.2730850099000000
     0.0000000000000000   11.4560718535999992    0.0000000000000000
    -4.7917773932000003    0.0000000000000000   12.1676396188999991
   Cl   In   Li
    48     8    24
Direct
  0.1333919159559663  0.1606061961763698  0.1589698886352422
  0.8681294347998898  0.1598852523064341  0.8414920523149783
  0.8841911646374919  0.8205189714594260  0.8619216074488394
  0.1199417704990281  0.8179195915247410  0.1402673701322187
  0.3642639921157958  0.6556590057094981  0.1452805833578776
  0.1172087292862179  0.6661175277728150  0.8849671565373397
  0.1343366594978856  0.3614461626590768  0.8621784754635160
  0.3620659599150262  0.3506236797021303  0.1393249164403098
  0.1106288499064987  0.1490939049613458  0.6404833009392965
  0.8899094561405756  0.1492762173378981  0.3614578131630441
  0.8802586433965792  0.8427346517139709  0.3543050715185859
  0.1193502477384544  0.8436985411905540  0.6491326746180572
  0.3657367849107114  0.6647734903495299  0.6244545203445223
  0.1291551348001139  0.6466787062969499  0.3683513289529037
  0.1298232366899307  0.3476035036498397  0.3749523876816369
  0.3553058413360125  0.3433448287819484  0.6412521787518750
  0.6239951079028992  0.1578037475891146  0.1364189812806178
  0.3790166092984013  0.1587975109055504  0.8660042443917286
  0.3810257123196492  0.8556923624861074  0.8656298233858084
  0.6203338867148016  0.8556745565307542  0.1370231678287172
  0.8867335112535971  0.6634483346535663  0.1212170548375851
  0.6472934140408820  0.6649155171860787  0.8640174149094300
  0.6468548790831330  0.3381059491922163  0.8638146810907107
  0.8630822095968423  0.3649915404529520  0.1373334931224921
  0.6058083019893872  0.1645589203255828  0.6341312332286297
  0.3958162240360293  0.1642513758634448  0.3636948660747925
  0.3775358793714930  0.8573563019841735  0.3538494014194020
  0.6236091271783432  0.8565634228574203  0.6455201690668710
  0.8724739230937656  0.6482947468755478  0.6325098989670094
  0.6231550187053194  0.6562868231471937  0.3676768670313418
  0.6297696848442919  0.3534253158829201  0.3516622962838255
  0.8699869347442672  0.3425067196961037  0.6221286909026656
  0.1196903932967492  0.9850538056210250  0.3927807770554765
  0.8807682991821163  0.9864431175725231  0.6100339531515389
  0.3589979266313536  0.4940027117432028  0.3788861923003134
  0.1351046802037134  0.5172481820575728  0.6251435090272457
  0.1075818823002264  0.0065414715459825  0.8852961521096854
  0.8960835396244087  0.0046305078526855  0.1186502427588927
  0.3593934231096617  0.5301375075023304  0.8836311778626642
  0.1253169518112792  0.5089725678173237  0.1125660082491428
  0.6188449389433400 -0.0015259866501290  0.3913945479932926
  0.3835577956306708  0.0000628998704539  0.6107906696471161
  0.8579494657111905  0.5158083708799263  0.3738986186612909
  0.6419663268862371  0.4941136145193678  0.6182768225009038
  0.6109306250418597  0.0061661127384400  0.8780544884931664
  0.3916961074462098  0.0085859091196147  0.1223540424396881
  0.8781294519586306  0.5090447376913372  0.8883037975222861
  0.6368410700463790  0.5288415446100030  0.1144952152106705
  0.2571763818498319  0.5032644842402115  0.0041269934882538
  0.0002206705673176 -0.0045973170666129  0.5013571845634240
  0.2548479519218065  0.5008439133698376  0.5077663521311951
  0.5014835109722526  0.0090854813279000 -0.0008299814301922
  0.7355852791424146  0.5000711169341168  0.9881556332636410
  0.5003191742150580  0.0005962367530741  0.5008570487058617
  0.7484942296568238  0.5002441422910030  0.4991218633604943
 -0.0012794931519893  0.6775313943050053  0.0011747980589579
  0.0146560697037149  0.1320661002439941  0.2578514828750083
  0.0037468120235844  0.8641109768128079  0.7563232198234516
  0.2528245863452607  0.6643648329198169  0.2668770231818959
  0.2566048615388996  0.3738167596816387  0.7573318681774217
 -0.0119945742682088  0.1328503323208603  0.7456932028418125
  0.9975887378798197  0.8595856569043826  0.2473772587745828
  0.2577619013384914  0.6769882859768233  0.7287770916011190
  0.2501485673792159  0.3156286774354842  0.2702262456851053
  0.5229986300345514  0.1522667236989286  0.2623058123687279
  0.4946031930276890  0.8532518815602220  0.7480203676569567
  0.7378294073494852  0.6770489374234603  0.2648260391516545
  0.7452408357021311  0.3184081715999544  0.7353247465988808
  0.4779681822872346  0.1635952674869137  0.7357614360943788
  0.5065775810084463  0.8591562841895646  0.2524304306915443
  0.7414325501952227  0.6601130271321164  0.7355435025471764
  0.7402687210140777  0.3722726647311793  0.2377046258558571
  0.2746071415684594  0.0252061564712954  0.2326721116999786
  0.4832662245480763  0.5025802199186797  0.2702133284270201
  0.2245283373910864  0.0086618924392765  0.7845329138722221
 -0.0009500389026039  0.0678258450141862  0.0005269370283532
  0.7782339102004929  0.0074935134980167  0.2180391012060023
 -0.0055700725268628  0.4933325758861163  0.2801503586649058
  0.7261146297992914  0.0257906159440473  0.7659933579007995
  0.0040004735656159  0.4889275678428015  0.7155627770282773
 
  0.00000000E+00  0.00000000E+00  0.00000000E+00
  0.00000000E+00  0.00000000E+00  0.00000000E+00
  0.00000000E+00  0.00000000E+00  0.00000000E+00
  0.00000000E+00  0.00000000E+00  0.00000000E+00
  0.00000000E+00  0.00000000E+00  0.00000000E+00
  0.00000000E+00  0.00000000E+00  0.00000000E+00
  0.00000000E+00  0.00000000E+00  0.00000000E+00
  0.00000000E+00  0.00000000E+00  0.00000000E+00
  0.00000000E+00  0.00000000E+00  0.00000000E+00
  0.00000000E+00  0.00000000E+00  0.00000000E+00
  0.00000000E+00  0.00000000E+00  0.00000000E+00
  0.00000000E+00  0.00000000E+00  0.00000000E+00
  0.00000000E+00  0.00000000E+00  0.00000000E+00
  0.00000000E+00  0.00000000E+00  0.00000000E+00
  0.00000000E+00  0.00000000E+00  0.00000000E+00
  0.00000000E+00  0.00000000E+00  0.00000000E+00
  0.00000000E+00  0.00000000E+00  0.00000000E+00
  0.00000000E+00  0.00000000E+00  0.00000000E+00
  0.00000000E+00  0.00000000E+00  0.00000000E+00
  0.00000000E+00  0.00000000E+00  0.00000000E+00
  0.00000000E+00  0.00000000E+00  0.00000000E+00
  0.00000000E+00  0.00000000E+00  0.00000000E+00
  0.00000000E+00  0.00000000E+00  0.00000000E+00
  0.00000000E+00  0.00000000E+00  0.00000000E+00
  0.00000000E+00  0.00000000E+00  0.00000000E+00
  0.00000000E+00  0.00000000E+00  0.00000000E+00
  0.00000000E+00  0.00000000E+00  0.00000000E+00
  0.00000000E+00  0.00000000E+00  0.00000000E+00
  0.00000000E+00  0.00000000E+00  0.00000000E+00
  0.00000000E+00  0.00000000E+00  0.00000000E+00
  0.00000000E+00  0.00000000E+00  0.00000000E+00
  0.00000000E+00  0.00000000E+00  0.00000000E+00
  0.00000000E+00  0.00000000E+00  0.00000000E+00
  0.00000000E+00  0.00000000E+00  0.00000000E+00
  0.00000000E+00  0.00000000E+00  0.00000000E+00
  0.00000000E+00  0.00000000E+00  0.00000000E+00
  0.00000000E+00  0.00000000E+00  0.00000000E+00
  0.00000000E+00  0.00000000E+00  0.00000000E+00
  0.00000000E+00  0.00000000E+00  0.00000000E+00
  0.00000000E+00  0.00000000E+00  0.00000000E+00
  0.00000000E+00  0.00000000E+00  0.00000000E+00
  0.00000000E+00  0.00000000E+00  0.00000000E+00
  0.00000000E+00  0.00000000E+00  0.00000000E+00
  0.00000000E+00  0.00000000E+00  0.00000000E+00
  0.00000000E+00  0.00000000E+00  0.00000000E+00
  0.00000000E+00  0.00000000E+00  0.00000000E+00
  0.00000000E+00  0.00000000E+00  0.00000000E+00
  0.00000000E+00  0.00000000E+00  0.00000000E+00
  0.00000000E+00  0.00000000E+00  0.00000000E+00
  0.00000000E+00  0.00000000E+00  0.00000000E+00
  0.00000000E+00  0.00000000E+00  0.00000000E+00
  0.00000000E+00  0.00000000E+00  0.00000000E+00
  0.00000000E+00  0.00000000E+00  0.00000000E+00
  0.00000000E+00  0.00000000E+00  0.00000000E+00
  0.00000000E+00  0.00000000E+00  0.00000000E+00
  0.00000000E+00  0.00000000E+00  0.00000000E+00
  0.00000000E+00  0.00000000E+00  0.00000000E+00
  0.00000000E+00  0.00000000E+00  0.00000000E+00
  0.00000000E+00  0.00000000E+00  0.00000000E+00
  0.00000000E+00  0.00000000E+00  0.00000000E+00
  0.00000000E+00  0.00000000E+00  0.00000000E+00
  0.00000000E+00  0.00000000E+00  0.00000000E+00
  0.00000000E+00  0.00000000E+00  0.00000000E+00
  0.00000000E+00  0.00000000E+00  0.00000000E+00
  0.00000000E+00  0.00000000E+00  0.00000000E+00
  0.00000000E+00  0.00000000E+00  0.00000000E+00
  0.00000000E+00  0.00000000E+00  0.00000000E+00
  0.00000000E+00  0.00000000E+00  0.00000000E+00
  0.00000000E+00  0.00000000E+00  0.00000000E+00
  0.00000000E+00  0.00000000E+00  0.00000000E+00
  0.00000000E+00  0.00000000E+00  0.00000000E+00
  0.00000000E+00  0.00000000E+00  0.00000000E+00
  0.00000000E+00  0.00000000E+00  0.00000000E+00
  0.00000000E+00  0.00000000E+00  0.00000000E+00
  0.00000000E+00  0.00000000E+00  0.00000000E+00
  0.00000000E+00  0.00000000E+00  0.00000000E+00
  0.00000000E+00  0.00000000E+00  0.00000000E+00
  0.00000000E+00  0.00000000E+00  0.00000000E+00
  0.00000000E+00  0.00000000E+00  0.00000000E+00
  0.00000000E+00  0.00000000E+00  0.00000000E+00
